 W                                      
   1.00000000000000     
     4.5120332854864431    0.0000000000000000    0.0000000000000000
     2.2560217320574161    9.3018006251993626    0.0000000000000000
     0.0000000000000000    0.0000000000000000   65.7736859330143488
   W 
   136
Direct
  0.0055711076704869  0.9888578128694487  0.0141898496910368
  0.1509742070847618  0.6980522720756486  0.0187518837956566
  0.2973342077083104  0.4053329306826327  0.0239778639840491
  0.4451407317813466  0.1097205407984291  0.0284222786290345
  0.5912909479855967  0.8174162609049368  0.0330353626598816
  0.7376046782758503  0.5247894620447376  0.0384117565923313
  0.8818893159009414  0.2362208391664860  0.0428230981090612
  0.0300132078085229  0.9399737192315955  0.0508471791359656
  0.1764442832572751  0.6471122287040822  0.0562713394624845
  0.3240258728995365  0.3519497197772457  0.0618551596700652
  0.4708466008167698  0.0583089269741077  0.0677070706560794
  0.6184615477218715  0.7630751861057179  0.0737588254884709
  0.7654527954435579  0.4690933504102981  0.0793139315904627
  0.9119512670046932  0.1760970684923878  0.0852831212313974
  0.0597212527318541  0.8805577643816648  0.0916446407135829
  0.2071680259902173  0.5856648851789432  0.0973704492532502
  0.3541966217642036  0.2916083571927766  0.1029241294376272
  0.5011451765130429  0.9977073972305747  0.1088510658697028
  0.6486421739595727  0.7027140672545761  0.1145544419376890
  0.7955568969867425  0.4088852835697381  0.1204417449138832
  0.9420668662918124  0.1158660056826002  0.1262463344198691
  0.0891353124293622  0.8217297776012498  0.1320393638241239
  0.2363908136833185  0.5272194383490709  0.1377154463153646
  0.3834035784327032  0.2331945723010288  0.1435439319138899
  0.5305032632041921  0.9389913543078671  0.1493773361997831
  0.6774734288895018  0.6450516855931057  0.1552978785439772
  0.8244405788270424  0.3511180484183238  0.1610693285786871
  0.9716045775779919  0.0567907155281083  0.1669346648420575
  0.1188412798861366  0.7623179743025765  0.1727958379200978
  0.2659821139364575  0.4680369709387513  0.1786132465641689
  0.4130407959802128  0.1739202691393146  0.1844043436508547
  0.5599880439094966  0.8800219248552406  0.1903206443349952
  0.7070488663381866  0.5859009434683266  0.1961242630211904
  0.8542099184588218  0.2915795033838066  0.2019474520077391
  0.0012607645906487  0.9974784735587904  0.2077698257337025
  0.1482681756857750  0.7034643157202614  0.2135862795660825
  0.2953393235074935  0.4093226818958755  0.2193459746182639
  0.4424084744662133  0.1151850443153588  0.2252806185880006
  0.5894154487479251  0.8211672467413895  0.2310830980738414
  0.7364308483915658  0.5271371111467666  0.2368643527982977
  0.8836390675182034  0.2327213356974542  0.2426770052646111
  0.0307694369049127  0.9384612612264196  0.2485832574521452
  0.1776833790495794  0.6446340376181111  0.2543640759682340
  0.3247549555640555  0.3504915497505813  0.2601802098028616
  0.4720487940794215  0.0559045374075747  0.2660565959813790
  0.6189069909168563  0.7621842947564860  0.2719562700482517
  0.7658849637650056  0.4682290100497868  0.2775818224507267
  0.9135467998334231  0.1729060042938210  0.2834680555937001
  0.0605778249081048  0.8788446151933235  0.2895319311406668
  0.2067485549955922  0.5865038190442445  0.2952683696010964
  0.3542257092788945  0.2915501747380455  0.3006953417602288
  0.5024208315924676  0.9951560844180605  0.3071006732429525
  0.6484635048387113  0.7030713966984382  0.3130406158667481
  0.7951389594150645  0.4097211511865342  0.3182126149283476
  0.9444500426345983  0.1110996543349813  0.3243656867673288
  0.0906577684782703  0.8186848640247805  0.3308214482030730
  0.2352226162350796  0.5295558206091285  0.3361566855132951
  0.3838973953566336  0.2322069311858079  0.3405741755201964
  0.5338478715073233  0.9323021419005919  0.3485941130255951
  0.6783352913404710  0.6433279572722480  0.3541543984338443
  0.8249545521362597  0.3500900953273997  0.3580814881462654
  0.9771200120161515  0.0457598609673217  0.3656131788088270
  0.1203645659268171  0.7592713986936767  0.3734755919982362
  0.2656520801949782  0.4686970317566775  0.3764784450467999
  0.4117320323573099  0.1765377837215364  0.3785361813302725
  0.5707821917580749  0.8584336509626430  0.3923186851846013
  0.7129005770752553  0.5741975369905558  0.3955718966981365
  0.8585741383453451  0.2828510824604853  0.3970606247130105
  0.1647973479894814  0.6704060056032176  0.4167004064534934
  0.4538275291821391  0.0923469692504345  0.4142461838079258
  0.3081148594748245  0.3837716357524583  0.4160874630395479
  0.0219884675799296  0.9560231504662039  0.4252951631219788
  0.8784296450158996  0.2431401607414956  0.4361322994947300
  0.7322838992084328  0.5354309990834578  0.4378882262353758
  0.5865604623748581  0.8268772144665214  0.4414964969433554
  0.4361854369590718  0.1276311070536083  0.4522657520272295
  0.2872932089154072  0.4254149022278645  0.4567749405575435
  0.1420188285233061  0.7159629983986499  0.4602975673091266
 -0.0014091055173056  1.0028182198966571  0.4674740022813895
  0.8478705368221994  0.3042582553363365  0.4747258217521217
  0.7004323500794998  0.5991339633320067  0.4788305221413685
  0.5562602062958850  0.8874776009439669  0.4845799534742120
  0.4079738629576830  0.1840541287266848  0.4917010832385971
  0.2595595163433966  0.4808821476207416  0.4969707671388511
  0.1137629513451811  0.7724746233913581  0.5023102293431300
  0.9674780010149175  0.0650438634397344  0.5086556205714101
  0.8188592868554549  0.3622806192363049  0.5146449889814491
  0.6722276010744197  0.6555433264984641  0.5199957401979552
  0.5260502723539850  0.9478973272869509  0.5259172213923076
  0.3784817670876001  0.2430381807107606  0.5320424987937160
  0.2310339575144044  0.5379331359966485  0.5377024966528223
  0.0846535146991546  0.8306933611929651  0.5434203987425139
  0.9375831224099670  0.1248334825106844  0.5493737901098390
  0.7901680567994644  0.4196629471878827  0.5553227811408097
  0.6432684337787029  0.7134615305044202  0.5610350294254269
  0.4964198958792129  0.0071624547449521  0.5668694513673447
  0.3492153256818064  0.3015709319198360  0.5727609673496230
  0.2021680028505601  0.5956649124554598  0.5785661869867772
  0.0552703914111465  0.8894594728635761  0.5843545648397498
  0.9083463690836253  0.1833068535815877  0.5902136247649393
  0.7612930358443256  0.4774128560540217  0.5960208536402333
  0.6143366784067424  0.7713249076438642  0.6018179761521716
  0.4673746274800319  0.0652528589620153  0.6076157263446602
  0.3203217933222982  0.3593578623061439  0.6134424679353259
  0.1733047645328157  0.6533912561603682  0.6192725496000947
  0.0264138770552847  0.9471723680251180  0.6251281098347897
  0.8794053212938473  0.2411888168970746  0.6309548142524064
  0.7322799609891434  0.5354388732435895  0.6367802409733516
  0.5850824062864554  0.8298333182429003  0.6426213874588020
  0.4380200810676319  0.1239618155187943  0.6484865722372725
  0.2910709350529728  0.4178594448231260  0.6543072530534824
  0.1441232704187501  0.7117541115147130  0.6602163196642696
  0.9970387341181606  0.0059225204619997  0.6660508362250308
  0.8500856183998343  0.2998280883375636  0.6718549851653778
  0.7028356677638929  0.5943273256156436  0.6775542780565788
  0.5558500676321469  0.8882978619495033  0.6833426612233284
  0.4093797207983545  0.1812424066493552  0.6891434820768387
  0.2625152521892271  0.4749706815178547  0.6950013482493894
  0.1150522737225032  0.7698959729911754  0.7007267661865532
  0.9681342287147099  0.0637314020840666  0.7066269967962431
  0.8210973132835642  0.3578045693102367  0.7121792676327524
  0.6737278932799560  0.6525427420083996  0.7179110475038794
  0.5259998948041297  0.9479980710931037  0.7242735594051996
  0.3795433014748956  0.2409151083222216  0.7302352002587412
  0.2325434888012098  0.5349140737933087  0.7358133351424969
  0.0849225191778979  0.8301553486042712  0.7418645084502988
  0.9381157157026476  0.1237682924767880  0.7477156032847845
  0.7906135575743416  0.4187719378178118  0.7532827493290835
  0.6441592474557288  0.7116798979220330  0.7587131039819019
  0.4960035899627950  0.0079950606824437  0.7667912060603034
  0.3517033378623208  0.2965949128464256  0.7711883073839656
  0.2054620653516096  0.5890767960265993  0.7765283120701935
  0.0593241382794551  0.8813519855574913  0.7811515644017853
  0.9117053537890278  0.1765888958790301  0.7855707712336267
  0.7652124962285320  0.4695739519753776  0.7907802815015231
  0.6197894608566852  0.7604193645510077  0.7953612436772204
 
  0.00000000E+00  0.00000000E+00  0.00000000E+00
  0.00000000E+00  0.00000000E+00  0.00000000E+00
  0.00000000E+00  0.00000000E+00  0.00000000E+00
  0.00000000E+00  0.00000000E+00  0.00000000E+00
  0.00000000E+00  0.00000000E+00  0.00000000E+00
  0.00000000E+00  0.00000000E+00  0.00000000E+00
  0.00000000E+00  0.00000000E+00  0.00000000E+00
  0.00000000E+00  0.00000000E+00  0.00000000E+00
  0.00000000E+00  0.00000000E+00  0.00000000E+00
  0.00000000E+00  0.00000000E+00  0.00000000E+00
  0.00000000E+00  0.00000000E+00  0.00000000E+00
  0.00000000E+00  0.00000000E+00  0.00000000E+00
  0.00000000E+00  0.00000000E+00  0.00000000E+00
  0.00000000E+00  0.00000000E+00  0.00000000E+00
  0.00000000E+00  0.00000000E+00  0.00000000E+00
  0.00000000E+00  0.00000000E+00  0.00000000E+00
  0.00000000E+00  0.00000000E+00  0.00000000E+00
  0.00000000E+00  0.00000000E+00  0.00000000E+00
  0.00000000E+00  0.00000000E+00  0.00000000E+00
  0.00000000E+00  0.00000000E+00  0.00000000E+00
  0.00000000E+00  0.00000000E+00  0.00000000E+00
  0.00000000E+00  0.00000000E+00  0.00000000E+00
  0.00000000E+00  0.00000000E+00  0.00000000E+00
  0.00000000E+00  0.00000000E+00  0.00000000E+00
  0.00000000E+00  0.00000000E+00  0.00000000E+00
  0.00000000E+00  0.00000000E+00  0.00000000E+00
  0.00000000E+00  0.00000000E+00  0.00000000E+00
  0.00000000E+00  0.00000000E+00  0.00000000E+00
  0.00000000E+00  0.00000000E+00  0.00000000E+00
  0.00000000E+00  0.00000000E+00  0.00000000E+00
  0.00000000E+00  0.00000000E+00  0.00000000E+00
  0.00000000E+00  0.00000000E+00  0.00000000E+00
  0.00000000E+00  0.00000000E+00  0.00000000E+00
  0.00000000E+00  0.00000000E+00  0.00000000E+00
  0.00000000E+00  0.00000000E+00  0.00000000E+00
  0.00000000E+00  0.00000000E+00  0.00000000E+00
  0.00000000E+00  0.00000000E+00  0.00000000E+00
  0.00000000E+00  0.00000000E+00  0.00000000E+00
  0.00000000E+00  0.00000000E+00  0.00000000E+00
  0.00000000E+00  0.00000000E+00  0.00000000E+00
  0.00000000E+00  0.00000000E+00  0.00000000E+00
  0.00000000E+00  0.00000000E+00  0.00000000E+00
  0.00000000E+00  0.00000000E+00  0.00000000E+00
  0.00000000E+00  0.00000000E+00  0.00000000E+00
  0.00000000E+00  0.00000000E+00  0.00000000E+00
  0.00000000E+00  0.00000000E+00  0.00000000E+00
  0.00000000E+00  0.00000000E+00  0.00000000E+00
  0.00000000E+00  0.00000000E+00  0.00000000E+00
  0.00000000E+00  0.00000000E+00  0.00000000E+00
  0.00000000E+00  0.00000000E+00  0.00000000E+00
  0.00000000E+00  0.00000000E+00  0.00000000E+00
  0.00000000E+00  0.00000000E+00  0.00000000E+00
  0.00000000E+00  0.00000000E+00  0.00000000E+00
  0.00000000E+00  0.00000000E+00  0.00000000E+00
  0.00000000E+00  0.00000000E+00  0.00000000E+00
  0.00000000E+00  0.00000000E+00  0.00000000E+00
  0.00000000E+00  0.00000000E+00  0.00000000E+00
  0.00000000E+00  0.00000000E+00  0.00000000E+00
  0.00000000E+00  0.00000000E+00  0.00000000E+00
  0.00000000E+00  0.00000000E+00  0.00000000E+00
  0.00000000E+00  0.00000000E+00  0.00000000E+00
  0.00000000E+00  0.00000000E+00  0.00000000E+00
  0.00000000E+00  0.00000000E+00  0.00000000E+00
  0.00000000E+00  0.00000000E+00  0.00000000E+00
  0.00000000E+00  0.00000000E+00  0.00000000E+00
  0.00000000E+00  0.00000000E+00  0.00000000E+00
  0.00000000E+00  0.00000000E+00  0.00000000E+00
  0.00000000E+00  0.00000000E+00  0.00000000E+00
  0.00000000E+00  0.00000000E+00  0.00000000E+00
  0.00000000E+00  0.00000000E+00  0.00000000E+00
  0.00000000E+00  0.00000000E+00  0.00000000E+00
  0.00000000E+00  0.00000000E+00  0.00000000E+00
  0.00000000E+00  0.00000000E+00  0.00000000E+00
  0.00000000E+00  0.00000000E+00  0.00000000E+00
  0.00000000E+00  0.00000000E+00  0.00000000E+00
  0.00000000E+00  0.00000000E+00  0.00000000E+00
  0.00000000E+00  0.00000000E+00  0.00000000E+00
  0.00000000E+00  0.00000000E+00  0.00000000E+00
  0.00000000E+00  0.00000000E+00  0.00000000E+00
  0.00000000E+00  0.00000000E+00  0.00000000E+00
  0.00000000E+00  0.00000000E+00  0.00000000E+00
  0.00000000E+00  0.00000000E+00  0.00000000E+00
  0.00000000E+00  0.00000000E+00  0.00000000E+00
  0.00000000E+00  0.00000000E+00  0.00000000E+00
  0.00000000E+00  0.00000000E+00  0.00000000E+00
  0.00000000E+00  0.00000000E+00  0.00000000E+00
  0.00000000E+00  0.00000000E+00  0.00000000E+00
  0.00000000E+00  0.00000000E+00  0.00000000E+00
  0.00000000E+00  0.00000000E+00  0.00000000E+00
  0.00000000E+00  0.00000000E+00  0.00000000E+00
  0.00000000E+00  0.00000000E+00  0.00000000E+00
  0.00000000E+00  0.00000000E+00  0.00000000E+00
  0.00000000E+00  0.00000000E+00  0.00000000E+00
  0.00000000E+00  0.00000000E+00  0.00000000E+00
  0.00000000E+00  0.00000000E+00  0.00000000E+00
  0.00000000E+00  0.00000000E+00  0.00000000E+00
  0.00000000E+00  0.00000000E+00  0.00000000E+00
  0.00000000E+00  0.00000000E+00  0.00000000E+00
  0.00000000E+00  0.00000000E+00  0.00000000E+00
  0.00000000E+00  0.00000000E+00  0.00000000E+00
  0.00000000E+00  0.00000000E+00  0.00000000E+00
  0.00000000E+00  0.00000000E+00  0.00000000E+00
  0.00000000E+00  0.00000000E+00  0.00000000E+00
  0.00000000E+00  0.00000000E+00  0.00000000E+00
  0.00000000E+00  0.00000000E+00  0.00000000E+00
  0.00000000E+00  0.00000000E+00  0.00000000E+00
  0.00000000E+00  0.00000000E+00  0.00000000E+00
  0.00000000E+00  0.00000000E+00  0.00000000E+00
  0.00000000E+00  0.00000000E+00  0.00000000E+00
  0.00000000E+00  0.00000000E+00  0.00000000E+00
  0.00000000E+00  0.00000000E+00  0.00000000E+00
  0.00000000E+00  0.00000000E+00  0.00000000E+00
  0.00000000E+00  0.00000000E+00  0.00000000E+00
  0.00000000E+00  0.00000000E+00  0.00000000E+00
  0.00000000E+00  0.00000000E+00  0.00000000E+00
  0.00000000E+00  0.00000000E+00  0.00000000E+00
  0.00000000E+00  0.00000000E+00  0.00000000E+00
  0.00000000E+00  0.00000000E+00  0.00000000E+00
  0.00000000E+00  0.00000000E+00  0.00000000E+00
  0.00000000E+00  0.00000000E+00  0.00000000E+00
  0.00000000E+00  0.00000000E+00  0.00000000E+00
  0.00000000E+00  0.00000000E+00  0.00000000E+00
  0.00000000E+00  0.00000000E+00  0.00000000E+00
  0.00000000E+00  0.00000000E+00  0.00000000E+00
  0.00000000E+00  0.00000000E+00  0.00000000E+00
  0.00000000E+00  0.00000000E+00  0.00000000E+00
  0.00000000E+00  0.00000000E+00  0.00000000E+00
  0.00000000E+00  0.00000000E+00  0.00000000E+00
  0.00000000E+00  0.00000000E+00  0.00000000E+00
  0.00000000E+00  0.00000000E+00  0.00000000E+00
  0.00000000E+00  0.00000000E+00  0.00000000E+00
  0.00000000E+00  0.00000000E+00  0.00000000E+00
  0.00000000E+00  0.00000000E+00  0.00000000E+00
  0.00000000E+00  0.00000000E+00  0.00000000E+00
  0.00000000E+00  0.00000000E+00  0.00000000E+00
  0.00000000E+00  0.00000000E+00  0.00000000E+00
