 W                                      
   1.00000000000000     
     4.5120332854864431    0.0000000000000000    0.0000000000000000
     2.2560217320574161    9.1639921754385973    0.0000000000000000
     0.0000000000000000    0.0000000000000000   77.7590208612440250
   W 
   132
Direct
  0.0098620035050253  0.9802760060694773  0.0103081394847641
  0.6065453105231895  0.7869076556633817  0.0140640955659440
  0.2390653255652663  0.5218704227812639  0.0195898658113054
  0.8716574366783469  0.2566845346218407  0.0237545791941962
  0.4839544358722311  0.0320933153733387  0.0276523506544399
  0.1087468712573891  0.7825067415078784  0.0326044673715081
  0.7283864509070650  0.5432258735688668  0.0366537470240689
  0.3470632737108268  0.3058750254139327  0.0417106225116730
  0.9681432037874318  0.0637134514198206  0.0477771325610623
  0.5906134208625738  0.8187713119919676  0.0529259681776732
  0.2129147574013232  0.5741714466903682  0.0581706836999958
  0.8324566146360776  0.3350860184320699  0.0627077600913642
  0.4536411360508015  0.0927197766668688  0.0676086073817805
  0.0762654716361859  0.8474694007642712  0.0725538494298995
  0.6973487867161771  0.6053010615887747  0.0773737491548579
  0.3182443844516914  0.3635126677422566  0.0823801539102753
  0.9394791603835991  0.1210414057679678  0.0876354188192061
  0.5607564238804232  0.8784851700494676  0.0926363866806591
  0.1817648734186913  0.6364710734293307  0.0977095730394520
  0.8029478429379775  0.3941034265629300  0.1025505687507006
  0.4244947567881615  0.1510124024289586  0.1074935789588178
  0.0455213095513028  0.9089575873960486  0.1125228991123693
  0.6667407682924470  0.6665169602768617  0.1174688110387372
  0.2880354741718015  0.4239303513203110  0.1225043798555566
  0.9092353492933257  0.1815288909943505  0.1275659303372364
  0.5304246526447449  0.9391485753561905  0.1325371000269198
  0.1516741294169075  0.6966524240928461  0.1376207359823821
  0.7728856018908480  0.4542277705403944  0.1425609621839967
  0.3939786815173974  0.2120444144728321  0.1475899049404262
  0.0151429558953145  0.9697141570973847  0.1526020024406304
  0.6363756616556997  0.7272470364583721  0.1576042405462250
  0.2574880148009694  0.4850251329775198  0.1625998533314293
  0.8786714029642254  0.2426566466132008  0.1676225298656186
  0.4999651273470738  1.0000720008253132  0.1725687606953526
  0.1210693520091063  0.7578618422950609  0.1776981567064052
  0.7422345721705049  0.5155296937585542  0.1826058233007700
  0.3634227473822734  0.2731561454431316  0.1876430664564527
  0.9847590462219926  0.0304818389731939  0.1926277977756883
  0.6058646663242985  0.7882688898086974  0.1977012004751209
  0.2269537840733540  0.5460934565063866  0.2027020886989474
  0.8482009484483881  0.3035974180367264  0.2076528359919556
  0.4696853123819540  0.0606314944548619  0.2125735545244750
  0.0906473911676346  0.8187056273145022  0.2178312863910993
  0.7118095493200363  0.5763796013777902  0.2227218669312076
  0.3329656897466016  0.3340701230762651  0.2276615297877328
  0.9545813220389211  0.0908371512899570  0.2325804040671485
  0.5755951011606156  0.8488078828887343  0.2378607007520935
  0.1963141236746279  0.6073726384553969  0.2429290709743419
  0.8175971509268315  0.3648048753188571  0.2476235733282800
  0.4395973340215386  0.1208073158404228  0.2523934932110121
  0.0605183187580036  0.8789636350994093  0.2581981285495883
  0.6807788944225535  0.6384407716703224  0.2629540694485173
  0.3022297273694363  0.3955419070477931  0.2675606643391241
  0.9249772854977769  0.1500450919510662  0.2721568878430773
  0.5463343315196842  0.9073292907363926  0.2782663453518766
  0.1651748982820496  0.6696509490365532  0.2834438626101011
  0.7863995999565466  0.4271998365868507  0.2873366039779202
  0.4110752462527860  0.1778513607305061  0.2914321002431738
  0.0318136597405067  0.9363728244589290  0.2989764323996377
  0.6497448549327970  0.7005087094385629  0.3041510494019360
  0.2694427319605823  0.4611157446571256  0.3071511663703911
  0.8960236288082157  0.2079522737757099  0.3104853591566664
  0.5201735478826505  0.9596507412744283  0.3193887938608835
  0.1350586812948821  0.7298832345632833  0.3270313606378256
  0.7577184116860101  0.4845620761361782  0.3271746335929229
  0.3807573115566124  0.2384870941634356  0.3284252498468708
  0.8807561836140945  0.2384870941634356  0.3462812731443374
  0.2577195396285284  0.4845620761361782  0.3475305804018184
  0.6350575533523636  0.7298832345632833  0.3476738533569158
  0.0201746758251753  0.9596507412744283  0.3553177291303318
  0.3960247567507339  0.2079522737757099  0.3642211638345488
  0.7694416040180641  0.4611157446571256  0.3675553566208170
  0.1497459828753219  0.7005087094385629  0.3705541645928124
  0.5318125317979886  0.9363728244589290  0.3757287815951037
  0.9110741183102677  0.1778513607305061  0.3832744227480414
  0.2864007278990647  0.4271998365868507  0.3873699190132880
  0.6651737703395245  0.6696509490365532  0.3912626603811142
  0.0463354594622023  0.9073292907363926  0.3964401776393315
  0.4249784134403026  0.1500450919510662  0.4025496351481379
  0.8022285994269114  0.3955419070477931  0.4071445496556172
  0.1807800223650712  0.6384407716703224  0.4117511445462241
  0.5605171908154780  0.8789636350994093  0.4165083944416269
  0.9395962060790209  0.1208073158404228  0.4223130297802032
  0.3175982788693488  0.3648048753188571  0.4270829496629351
  0.6963129957321095  0.6073726384553969  0.4317774520168666
  0.0755962291031343  0.8488078828887343  0.4368445132426548
  0.4545824499814393  0.0908371512899570  0.4421261189240666
  0.8329645618040770  0.3340701230762651  0.4470449932034826
  0.2118106772625540  0.5763796013777902  0.4519846560600078
  0.5906462632251097  0.8187056273145022  0.4568739276036421
  0.9696841844394363  0.0606314944548619  0.4621329684667405
  0.3482020763909067  0.3035974180367264  0.4670536869992598
  0.7269526561308358  0.5460934565063866  0.4720031252957939
  0.1058657942668162  0.7882688898086974  0.4770040135196275
  0.4847601741645176  0.0304818389731939  0.4820787252155200
  0.8634216194397478  0.2731561454431316  0.4870634565347626
  0.2422357001130232  0.5155296937585542  0.4921006996904450
  0.6210682240665817  0.7578618422950609  0.4970070572883367
 -0.0000360005954444  1.0000720008253132  0.5021364532993882
  0.3786725309067431  0.2426566466132008  0.5070839931255967
  0.7574868868584522  0.4850251329775198  0.5121066696597861
  0.1363767895982167  0.7272470364583721  0.5171022824449897
  0.5151418279527963  0.9697141570973847  0.5221045205505850
  0.8939775535748798  0.2120444144728321  0.5271166180507900
  0.2728867298333724  0.4542277705403944  0.5321455608072188
  0.6516730014743893  0.6966524240928461  0.5370857870088330
  0.0304257805872627  0.9391485753561905  0.5421685066667645
  0.4092364772358432  0.1815288909943505  0.5471396763564489
  0.7880343462292841  0.4239303513203110  0.5522021431356521
  0.1667418962349653  0.6665169602768617  0.5572373192535347
  0.5455201816087845  0.9089575873960486  0.5621831002802594
  0.9244936288456437  0.1510124024289586  0.5672125513334537
  0.3029489708804958  0.3941034265629300  0.5721555615415711
  0.6817637454761660  0.6364710734293307  0.5769965572528203
  0.0607575518229407  0.8784851700494676  0.5820692200130256
  0.4394802883261166  0.1210414057679678  0.5870711041720090
  0.8182432565091735  0.3635126677422566  0.5923263690809322
  0.1973499146586949  0.6053010615887747  0.5973318575388271
  0.5762643436936673  0.8474694007642712  0.6021516263641353
  0.9536400081082841  0.0927197766668688  0.6070979156094353
  0.3324577425786024  0.3350860184320699  0.6119977157026779
  0.7129136294588051  0.5741714466903682  0.6165349229936889
  0.0906145488050917  0.8187713119919676  0.6217795076163688
  0.4681443317299498  0.0637134514198206  0.6269292595305026
  0.8470621457683086  0.3058750254139327  0.6329948532823622
  0.2283875788495837  0.5432258735688668  0.6380519905692595
  0.6087457433148646  0.7825067415078784  0.6421011393221696
  0.9839533079297130  0.0320933153733387  0.6470531251395940
  0.3716585646208725  0.2566845346218407  0.6509519437970190
  0.7390641976227484  0.5218704227812639  0.6551167880795533
  0.1065464384657146  0.7869076556633817  0.6606424928750958
  0.5098608755624994  0.9802760060694773  0.6643974541189541
 
  0.00000000E+00  0.00000000E+00  0.00000000E+00
  0.00000000E+00  0.00000000E+00  0.00000000E+00
  0.00000000E+00  0.00000000E+00  0.00000000E+00
  0.00000000E+00  0.00000000E+00  0.00000000E+00
  0.00000000E+00  0.00000000E+00  0.00000000E+00
  0.00000000E+00  0.00000000E+00  0.00000000E+00
  0.00000000E+00  0.00000000E+00  0.00000000E+00
  0.00000000E+00  0.00000000E+00  0.00000000E+00
  0.00000000E+00  0.00000000E+00  0.00000000E+00
  0.00000000E+00  0.00000000E+00  0.00000000E+00
  0.00000000E+00  0.00000000E+00  0.00000000E+00
  0.00000000E+00  0.00000000E+00  0.00000000E+00
  0.00000000E+00  0.00000000E+00  0.00000000E+00
  0.00000000E+00  0.00000000E+00  0.00000000E+00
  0.00000000E+00  0.00000000E+00  0.00000000E+00
  0.00000000E+00  0.00000000E+00  0.00000000E+00
  0.00000000E+00  0.00000000E+00  0.00000000E+00
  0.00000000E+00  0.00000000E+00  0.00000000E+00
  0.00000000E+00  0.00000000E+00  0.00000000E+00
  0.00000000E+00  0.00000000E+00  0.00000000E+00
  0.00000000E+00  0.00000000E+00  0.00000000E+00
  0.00000000E+00  0.00000000E+00  0.00000000E+00
  0.00000000E+00  0.00000000E+00  0.00000000E+00
  0.00000000E+00  0.00000000E+00  0.00000000E+00
  0.00000000E+00  0.00000000E+00  0.00000000E+00
  0.00000000E+00  0.00000000E+00  0.00000000E+00
  0.00000000E+00  0.00000000E+00  0.00000000E+00
  0.00000000E+00  0.00000000E+00  0.00000000E+00
  0.00000000E+00  0.00000000E+00  0.00000000E+00
  0.00000000E+00  0.00000000E+00  0.00000000E+00
  0.00000000E+00  0.00000000E+00  0.00000000E+00
  0.00000000E+00  0.00000000E+00  0.00000000E+00
  0.00000000E+00  0.00000000E+00  0.00000000E+00
  0.00000000E+00  0.00000000E+00  0.00000000E+00
  0.00000000E+00  0.00000000E+00  0.00000000E+00
  0.00000000E+00  0.00000000E+00  0.00000000E+00
  0.00000000E+00  0.00000000E+00  0.00000000E+00
  0.00000000E+00  0.00000000E+00  0.00000000E+00
  0.00000000E+00  0.00000000E+00  0.00000000E+00
  0.00000000E+00  0.00000000E+00  0.00000000E+00
  0.00000000E+00  0.00000000E+00  0.00000000E+00
  0.00000000E+00  0.00000000E+00  0.00000000E+00
  0.00000000E+00  0.00000000E+00  0.00000000E+00
  0.00000000E+00  0.00000000E+00  0.00000000E+00
  0.00000000E+00  0.00000000E+00  0.00000000E+00
  0.00000000E+00  0.00000000E+00  0.00000000E+00
  0.00000000E+00  0.00000000E+00  0.00000000E+00
  0.00000000E+00  0.00000000E+00  0.00000000E+00
  0.00000000E+00  0.00000000E+00  0.00000000E+00
  0.00000000E+00  0.00000000E+00  0.00000000E+00
  0.00000000E+00  0.00000000E+00  0.00000000E+00
  0.00000000E+00  0.00000000E+00  0.00000000E+00
  0.00000000E+00  0.00000000E+00  0.00000000E+00
  0.00000000E+00  0.00000000E+00  0.00000000E+00
  0.00000000E+00  0.00000000E+00  0.00000000E+00
  0.00000000E+00  0.00000000E+00  0.00000000E+00
  0.00000000E+00  0.00000000E+00  0.00000000E+00
  0.00000000E+00  0.00000000E+00  0.00000000E+00
  0.00000000E+00  0.00000000E+00  0.00000000E+00
  0.00000000E+00  0.00000000E+00  0.00000000E+00
  0.00000000E+00  0.00000000E+00  0.00000000E+00
  0.00000000E+00  0.00000000E+00  0.00000000E+00
  0.00000000E+00  0.00000000E+00  0.00000000E+00
  0.00000000E+00  0.00000000E+00  0.00000000E+00
  0.00000000E+00  0.00000000E+00  0.00000000E+00
  0.00000000E+00  0.00000000E+00  0.00000000E+00
  0.00000000E+00  0.00000000E+00  0.00000000E+00
  0.00000000E+00  0.00000000E+00  0.00000000E+00
  0.00000000E+00  0.00000000E+00  0.00000000E+00
  0.00000000E+00  0.00000000E+00  0.00000000E+00
  0.00000000E+00  0.00000000E+00  0.00000000E+00
  0.00000000E+00  0.00000000E+00  0.00000000E+00
  0.00000000E+00  0.00000000E+00  0.00000000E+00
  0.00000000E+00  0.00000000E+00  0.00000000E+00
  0.00000000E+00  0.00000000E+00  0.00000000E+00
  0.00000000E+00  0.00000000E+00  0.00000000E+00
  0.00000000E+00  0.00000000E+00  0.00000000E+00
  0.00000000E+00  0.00000000E+00  0.00000000E+00
  0.00000000E+00  0.00000000E+00  0.00000000E+00
  0.00000000E+00  0.00000000E+00  0.00000000E+00
  0.00000000E+00  0.00000000E+00  0.00000000E+00
  0.00000000E+00  0.00000000E+00  0.00000000E+00
  0.00000000E+00  0.00000000E+00  0.00000000E+00
  0.00000000E+00  0.00000000E+00  0.00000000E+00
  0.00000000E+00  0.00000000E+00  0.00000000E+00
  0.00000000E+00  0.00000000E+00  0.00000000E+00
  0.00000000E+00  0.00000000E+00  0.00000000E+00
  0.00000000E+00  0.00000000E+00  0.00000000E+00
  0.00000000E+00  0.00000000E+00  0.00000000E+00
  0.00000000E+00  0.00000000E+00  0.00000000E+00
  0.00000000E+00  0.00000000E+00  0.00000000E+00
  0.00000000E+00  0.00000000E+00  0.00000000E+00
  0.00000000E+00  0.00000000E+00  0.00000000E+00
  0.00000000E+00  0.00000000E+00  0.00000000E+00
  0.00000000E+00  0.00000000E+00  0.00000000E+00
  0.00000000E+00  0.00000000E+00  0.00000000E+00
  0.00000000E+00  0.00000000E+00  0.00000000E+00
  0.00000000E+00  0.00000000E+00  0.00000000E+00
  0.00000000E+00  0.00000000E+00  0.00000000E+00
  0.00000000E+00  0.00000000E+00  0.00000000E+00
  0.00000000E+00  0.00000000E+00  0.00000000E+00
  0.00000000E+00  0.00000000E+00  0.00000000E+00
  0.00000000E+00  0.00000000E+00  0.00000000E+00
  0.00000000E+00  0.00000000E+00  0.00000000E+00
  0.00000000E+00  0.00000000E+00  0.00000000E+00
  0.00000000E+00  0.00000000E+00  0.00000000E+00
  0.00000000E+00  0.00000000E+00  0.00000000E+00
  0.00000000E+00  0.00000000E+00  0.00000000E+00
  0.00000000E+00  0.00000000E+00  0.00000000E+00
  0.00000000E+00  0.00000000E+00  0.00000000E+00
  0.00000000E+00  0.00000000E+00  0.00000000E+00
  0.00000000E+00  0.00000000E+00  0.00000000E+00
  0.00000000E+00  0.00000000E+00  0.00000000E+00
  0.00000000E+00  0.00000000E+00  0.00000000E+00
  0.00000000E+00  0.00000000E+00  0.00000000E+00
  0.00000000E+00  0.00000000E+00  0.00000000E+00
  0.00000000E+00  0.00000000E+00  0.00000000E+00
  0.00000000E+00  0.00000000E+00  0.00000000E+00
  0.00000000E+00  0.00000000E+00  0.00000000E+00
  0.00000000E+00  0.00000000E+00  0.00000000E+00
  0.00000000E+00  0.00000000E+00  0.00000000E+00
  0.00000000E+00  0.00000000E+00  0.00000000E+00
  0.00000000E+00  0.00000000E+00  0.00000000E+00
  0.00000000E+00  0.00000000E+00  0.00000000E+00
  0.00000000E+00  0.00000000E+00  0.00000000E+00
  0.00000000E+00  0.00000000E+00  0.00000000E+00
  0.00000000E+00  0.00000000E+00  0.00000000E+00
  0.00000000E+00  0.00000000E+00  0.00000000E+00
  0.00000000E+00  0.00000000E+00  0.00000000E+00
  0.00000000E+00  0.00000000E+00  0.00000000E+00
  0.00000000E+00  0.00000000E+00  0.00000000E+00
  0.00000000E+00  0.00000000E+00  0.00000000E+00
