 W                                      
   1.00000000000000     
     4.5120332854864431    0.0000000000000000    0.0000000000000000
     2.2560217320574161   14.7937202870813405    0.0000000000000000
     0.0000000000000000    0.0000000000000000   73.2250526315789472
   W 
   258
Direct
  0.0035855169769389  0.9928289860531300  0.0134638960271576
  0.0954611106477746  0.8090782148071606  0.0157513991075385
  0.1869898389811229  0.6260211725272606  0.0187277482935496
  0.2793179632199465  0.4413653399311009  0.0219001765068347
  0.3730807088252064  0.2538402687354379  0.0248908299205544
  0.4662963730242076  0.0674093596468513  0.0268860312524882
  0.5590233322864292  0.8819513492096220  0.0292911575183168
  0.6515166995328845  0.6969650326594485  0.0323102392404528
  0.7442207534079678  0.5115573443374283  0.0356064093664055
  0.8368938908307967  0.3262114880103602  0.0387523961080261
  0.9281685392834189  0.1436626023348711  0.0405477408426038
  0.0222448792055602  0.9555103456904245  0.0459970247804401
  0.1149388233860524  0.7701228743719329  0.0492014748924801
  0.2076764870015118  0.5846479674259271  0.0522771516619820
  0.3003491110220681  0.3993031381222574  0.0552721853486875
  0.3938959853381774  0.2122098122086953  0.0584359406836454
  0.4868710363522948  0.0262601294063519  0.0617724426352241
  0.5802768071159281  0.8394444967296354  0.0654445750444265
  0.6731935650862352  0.6536113995605994  0.0686250636060959
  0.7662475106648732  0.4675039275427770  0.0718257392023785
  0.8592137799760181  0.2815718081313428  0.0748616050728962
  0.9519324771732746  0.0961348322119268  0.0783214182008091
  0.0453726764162873  0.9092548564880434  0.0822487112817813
  0.1385950621604694  0.7228105056586214  0.0856297815847832
  0.2316434948263037  0.5367140599537891  0.0887220635822902
  0.3246995330209101  0.3506024037780792  0.0918247267814774
  0.4177001163175241  0.1646016568923767  0.0949311688832718
  0.5106668553735544  0.9786640855505402  0.0983933905673141
  0.6039846288599391  0.7920289604319103  0.1016713255374158
  0.6970488987452961  0.6059008399946206  0.1049566529909073
  0.7900378945018427  0.4199232677886204  0.1081153001522053
  0.8828798772373615  0.2342397206390167  0.1114167985674326
  0.9754899271543777  0.0490200388095230  0.1147457062710934
  0.0685386484086439  0.8629230152700210  0.1181079172263105
  0.1616677431720626  0.6766652459954894  0.1213683694657904
  0.2547451048461170  0.4905109424542401  0.1245736600149237
  0.3478185286596092  0.3043645144245766  0.1277539809343018
  0.4407229496281880  0.1185560920443732  0.1310153802705738
  0.5337533959805735  0.9324911080034438  0.1343487019458161
  0.6268396931143863  0.7463189328737008  0.1377529474271323
  0.7199171189758913  0.5601645007775067  0.1410005035202701
  0.8128228846956486  0.3743533885612469  0.1442712340934523
  0.9057042958961831  0.1885909853787721  0.1475528652397285
  0.9987268004524069  0.0025463959999486  0.1509041851218259
  0.0918266697139520  0.8163470779715867  0.1542778676722138
  0.1849604101584802  0.6300800172200124  0.1575667466739219
  0.2780404386290797  0.4439203803867727  0.1607839053203492
  0.3710347688208765  0.2579321395508401  0.1640395314554242
  0.4640026498845347  0.0719967966809200  0.1673504168765016
  0.5569833459080724  0.8860313121413419  0.1706881321441798
  0.6500524583851554  0.6998935070079976  0.1739842907795411
  0.7430480678624647  0.5139027078090298  0.1772809990138689
  0.8360409048874595  0.3279174534339581  0.1805705044962527
  0.9290194716332846  0.1419607395644479  0.1838669252331246
  0.0219820974519669  0.9560359075058021  0.1871694028423966
  0.1150215439188007  0.7699574338962297  0.1904593952494834
  0.2080537145302369  0.5838935123451997  0.1937130336883714
  0.3010672292266151  0.3978669024255750  0.1969739729270411
  0.3940712162187215  0.2118593481628783  0.2002858147411738
  0.4870833890984225  0.0258354219643030  0.2035806780200597
  0.5800605506087754  0.8398770066862276  0.2068589161194315
  0.6730143147253053  0.6539698975243384  0.2101577527118363
  0.7660134272026194  0.4679720921732332  0.2134378873310224
  0.8590270567125973  0.2819452528281898  0.2167291030940556
  0.9520753646802023  0.0958490567371074  0.2200393159711679
  0.0451083744860714  0.9097834562508247  0.2233441316203714
  0.1380595243401226  0.7238815760686614  0.2266256200822422
  0.2310439671557733  0.5379131094184629  0.2299014099197907
  0.3240976876759500  0.3518060886692316  0.2331769522842648
  0.4172145270538740  0.1655728300368826  0.2364622156294278
  0.5102341308948589  0.9795295303792649  0.2398138844247024
  0.6031755084321263  0.7936471942718708  0.2431465916677159
  0.6960613503264295  0.6078759297453369  0.2463995146221549
  0.7890660836257958  0.4218668826445833  0.2496344089757979
  0.8822720494039411  0.2354553717332867  0.2529309916917803
  0.9754104334208303  0.0491790233334855  0.2563031774541120
  0.0683144076578521  0.8633714943968499  0.2596564818146080
  0.1611393212955979  0.6777220851385811  0.2629429484737443
  0.2540273270257398  0.4919464935969252  0.2661332254339925
  0.3472137467783574  0.3055740739311282  0.2693315270895792
  0.4405078851152699  0.1189862182624145  0.2727331356752878
  0.5335349140418317  0.9329280680471584  0.2761421145054133
  0.6262641078566525  0.7474700986706757  0.2794639552213201
  0.7190032751454905  0.5619921822841123  0.2826544029023764
  0.8121131974157020  0.3757727583126275  0.2857702073951811
  0.9055410084238775  0.1889175570918349  0.2890964889639013
  0.9987105075545514  0.0025789793477687  0.2926011931190294
  0.0914153941546484  0.8171696237819355  0.2960212210990497
  0.1839360949373858  0.6321286405580816  0.2992418267818375
  0.2768526127979707  0.4462960229379569  0.3022618452851866
  0.3703929306498129  0.2592158095462854  0.3054203861758502
  0.4639839266463336  0.0720342398791978  0.3089295208642314
  0.5568039038976240  0.8863901919093991  0.3125639477563469
  0.6490891709622580  0.7018200742173045  0.3158892795109938
  0.7416600393221245  0.5166787563638430  0.3188087793182803
  0.8351136034251926  0.3297720478481370  0.3217063534434348
  0.9291091625956729  0.1417813528280540  0.3252066123699348
  0.0222890853853073  0.9554219272776110  0.3290729527445684
  0.1143885254097347  0.7712234647990051  0.3326933657266846
  0.2065096804666361  0.5869815699039167  0.3356420248518030
  0.2995686701781632  0.4008640113260946  0.3381385777442971
  0.3937834162345729  0.2124349423556783  0.3411265813465496
  0.4879810725510979  0.0240400530016117  0.3454208500820043
  0.5800649615068310  0.8398681799077906  0.3494188663484348
  0.6718923085180430  0.6562139020586808  0.3525109791382020
  0.7644320696039769  0.4711347965816450  0.3548908528393558
  0.8580694849378235  0.2838603878146237  0.3573531002043202
  0.9532948725730009  0.0934100402219952  0.3614594044291058
  0.0459675070384876  0.9080651900129323  0.3660318314260604
  0.1370521340316778  0.7258963462241665  0.3697125246364700
  0.2293366362219501  0.5413277603094456  0.3718275807981184
  0.3223717039298810  0.3552580441292385  0.3737177171812342
  0.4169123550989285  0.1661771651337555  0.3763492752061602
  0.5122642662040136  0.9754692613596487  0.3824739087864250
  0.6035134104901779  0.7929713857477246  0.3865367871534459
  0.6951373759743595  0.6097238678530527  0.3890390718192918
  0.7874729504661926  0.4250531370356462  0.3906543866875596
  0.8810218059538297  0.2379558473666039  0.3924008770971330
  0.9783377168124107  0.0433244648248871  0.3982417929541038
  0.0693334367282265  0.8613334320342834  0.4044177532037813
  0.1616204112580610  0.6767599028357881  0.4064804410676904
  0.2538577420315581  0.4922856570973582  0.4077792166351115
  0.3458047796381951  0.3083919980574134  0.4089115634127607
  0.4378976014360175  0.1242067687973633  0.4100462034441836
  0.5395621046601723  0.9208736995069315  0.4214732009094467
  0.6288568562500687  0.7422846041499840  0.4243834634041983
  0.7200757427227205  0.5598472461735314  0.4253184197321696
  0.8124997757252975  0.3749996005402044  0.4260020384993308
  0.9054641920850275  0.1890711901684480  0.4269066724463906
  0.1001281721150989  0.7997440885974926  0.4430756653793505
  0.4677985466006537  0.0644050059819840  0.4417493607521555
  0.1902006146163741  0.6195996116614753  0.4428193842411831
  0.2817321649836411  0.4365369265290860  0.4430548374483190
  0.3736052213730838  0.2527912296891491  0.4433102507561105
  0.0122864734161166  0.9754271008492841  0.4514663705660847
  0.9238779634747816  0.1522437258120036  0.4612528913666510
  0.7415369641022145  0.5169249042550393  0.4622047437071489
  0.8337122630818262  0.3325747200959105  0.4618800794424021
  0.6483500119729698  0.7032983874773880  0.4630209910462824
  0.5539268368124358  0.8921443145474249  0.4657718893079654
  0.4582132626391017  0.0835755517111434  0.4758282227625620
  0.3649426360535571  0.2701163873352826  0.4794897901002587
  0.2725370986541841  0.4549270451132637  0.4801928258298784
  0.1798479123089537  0.6403049995163821  0.4809225784640991
  0.0878369433965181  0.8243265170873919  0.4830334831637608
  0.9971423192338078  0.0057153565312502  0.4894326587109224
  0.9008781125267511  0.1982433372730626  0.4953931892527657
  0.8068848376366256  0.3862294640568136  0.4972782344352279
  0.7141023325571437  0.5717940548357550  0.4984535544804625
  0.6220475283570162  0.7559032467429589  0.5005094778300326
  0.5315409841328879  0.9369159266854025  0.5049622528677775
  0.4371437848739190  0.1257144093438474  0.5108275203116404
  0.3420479384268127  0.3159056735452452  0.5140809799783613
  0.2485335487743892  0.5029340317596374  0.5157730627167690
  0.1564369625955954  0.6871267869893321  0.5177749485231689
  0.0652485447644874  0.8695032116002798  0.5215063847685528
  0.9726655902901227  0.0546687021233815  0.5262373884743203
  0.8776420632560417  0.2447153256642633  0.5303080814522730
  0.7836352039885931  0.4327286194829199  0.5327173539978091
  0.6908922446286587  0.6182141197431603  0.5348774186859633
  0.5992872434255003  0.8014237087948655  0.5380244296025344
  0.5071978391050064  0.9856021030009239  0.5421610734289487
  0.4131105133480755  0.1737808412535338  0.5462924002775188
  0.3187187319443423  0.3625639783762187  0.5494285247143330
  0.2256171969355877  0.5487666275717727  0.5518697007873302
  0.1335842842238773  0.7328320373651169  0.5547932053131971
  0.0415941358003137  0.9168119192806533  0.5584306223588636
  0.9483322665089758  0.1033352367029918  0.5623188556144071
  0.8542016921856840  0.2915959604843336  0.5658792301191988
  0.7605895373450304  0.4788198481858009  0.5687314627480893
  0.6680683071595367  0.6638618907676784  0.5715977174583791
  0.5758541937683012  0.8482897017571159  0.5749300757326744
  0.4830432579373625  0.0339156661665250  0.5785739835136257
  0.3894110295504550  0.2211797000132243  0.5821506149855441
  0.2957868659477787  0.4084276040886156  0.5853053423404904
  0.2028225168488820  0.5943558828675841  0.5882996508568944
  0.1103492856064636  0.7793019281702064  0.5915016654539244
  0.0177122591345871  0.9645755629228957  0.5949660625561765
  0.9244925329956584  0.1510145940419584  0.5984548493328160
  0.8309771776993915  0.3380448823846023  0.6017636904323264
  0.7378409336711841  0.5243169495445681  0.6048618553366142
  0.6450718826152841  0.7098546334342325  0.6080352031358753
  0.5523701385296460  0.8952577035075686  0.6113829784328658
  0.4593469422778167  0.0813081880613602  0.6147990685800726
  0.3660338947536652  0.2679338616435797  0.6181499918104111
  0.2727853585019106  0.4544305134042813  0.6213863406272110
  0.1798892091692902  0.6402223924613515  0.6245699041018865
  0.0871184322045992  0.8257635276750260  0.6278995085335241
  0.9941576506960988  0.0116846714016824  0.6312408976317972
  0.9009891472747800  0.1980212575639693  0.6345933578962970
  0.8078032660241696  0.3843925989141676  0.6378876684977467
  0.7147064350950951  0.5705858412463989  0.6411325203861742
  0.6217998440243639  0.7563986042173783  0.6443778422574772
  0.5288659465113895  0.9422659800899253  0.6476805557891273
  0.4358068452147891  0.1283882745392459  0.6510086688711829
  0.3426749342997903  0.3146516758763479  0.6543499313674698
  0.2496159357013213  0.5007692526828225  0.6576278505615331
  0.1566721921922157  0.6866563202480594  0.6609132015548049
  0.0637152496269678  0.8725697862143109  0.6641573263069843
  0.9707372643771313  0.0585253370440172  0.6674895480480183
  0.8777107550638695  0.2445779354893247  0.6707991444884803
  0.7846049109605320  0.4307892036718066  0.6740639602412164
  0.6915450206395897  0.6169085643687171  0.6773111800465925
  0.5985336516237666  0.8029308829303142  0.6805935249999836
  0.5055705226324989  0.9888567215576679  0.6838870996264781
  0.4125764960149667  0.1748488667155940  0.6871910896757067
  0.3195755914184322  0.3608502558239813  0.6904753453463636
  0.2265494811511450  0.5469020561528045  0.6937768626112018
  0.1334692660114750  0.7330620666501112  0.6970621363966600
  0.0405034769377622  0.9189932253181949  0.7004089102586317
  0.9475364484446180  0.1049268629135828  0.7037054102472901
  0.8545022508954598  0.2909948383261158  0.7069628334390623
  0.7614044147209149  0.4771900904322079  0.7101813917045000
  0.6682474174899425  0.6635036645642062  0.7134732666693829
  0.5751360861088892  0.8497259070181510  0.7168442024496209
  0.4821099801434023  0.0357822107389650  0.7201953320422957
  0.3892268131706276  0.2215481250494785  0.7234785391758194
  0.2962883828548009  0.4074245661272546  0.7267600620904030
  0.2031919366901454  0.5936170388654406  0.7300051555241108
  0.1100876172538533  0.7798252583409639  0.7334197415686500
  0.0170479317960360  0.9659042087994072  0.7367381537393851
  0.9241326221397709  0.1517344085347683  0.7400088416743554
  0.8310539391276678  0.3378913546000160  0.7432009643410422
  0.7379502300945548  0.5240983526746911  0.7464064187443687
  0.6448081700607062  0.7103820525676809  0.7496553115624042
  0.5517436141515197  0.8965107452015874  0.7530129154251802
  0.4591428069514937  0.0817164532380807  0.7563458925643403
  0.3663072607705978  0.2673871271107644  0.7596566936610366
  0.2733177131223468  0.4533658031607408  0.7628085932179143
  0.1802309237846552  0.6395389621409974  0.7660889481970414
  0.0869013375953112  0.8261977127028355  0.7693608873536047
  0.9939387427587394  0.0121224837610122  0.7728285261633151
  0.9009427370177920  0.1981140752716914  0.7759371680312787
  0.8078720029941798  0.3842551232171321  0.7790304507529344
  0.7148039943952531  0.5703907207959428  0.7821189858783574
  0.6215645835210264  0.7568691216851950  0.7855036134171144
  0.5281245704116692  0.9437487250253812  0.7894316774605508
  0.4354209159238185  0.1291601271967174  0.7928968690737922
  0.3424681242097734  0.3150652913565250  0.7959267718246732
  0.2494003110371112  0.5012004983140890  0.7991219619980976
  0.1564697419571315  0.6870612177272766  0.8023006233995554
  0.0630226003903492  0.8739550802328926  0.8059915690195038
  0.9700476789547910  0.0599045036392464  0.8093290798797602
  0.8765032380592819  0.2469929628755244  0.8124988386793380
  0.7838425727047869  0.4323138746095868  0.8154778535323818
  0.6910991928144260  0.6178002139796800  0.8185452774979376
  0.5983898467880202  0.8032184890939853  0.8217516111162469
  0.5043056890580974  0.9913863812407070  0.8272273263308820
  0.4130249184018456  0.1739520231059394  0.8290164249168535
  0.3203189835242465  0.3593634743146318  0.8321687948129922
  0.2276117015212811  0.5447776189017092  0.8354548991375021
  0.1351237476859909  0.7297531085783447  0.8384664969576874
  0.0424159981811406  0.9151681875654222  0.8408770885892470
  0.9491912758511066  0.1016172129867307  0.8428699963683574
  0.8554350576236026  0.2891292292157728  0.8458671658717001
  0.7631337263264352  0.4737314758618790  0.8490175090156998
  0.6716206373391799  0.6567572394092205  0.8519850379009211
  0.5797396518425183  0.8405187941764493  0.8542767905428947
 
  0.00000000E+00  0.00000000E+00  0.00000000E+00
  0.00000000E+00  0.00000000E+00  0.00000000E+00
  0.00000000E+00  0.00000000E+00  0.00000000E+00
  0.00000000E+00  0.00000000E+00  0.00000000E+00
  0.00000000E+00  0.00000000E+00  0.00000000E+00
  0.00000000E+00  0.00000000E+00  0.00000000E+00
  0.00000000E+00  0.00000000E+00  0.00000000E+00
  0.00000000E+00  0.00000000E+00  0.00000000E+00
  0.00000000E+00  0.00000000E+00  0.00000000E+00
  0.00000000E+00  0.00000000E+00  0.00000000E+00
  0.00000000E+00  0.00000000E+00  0.00000000E+00
  0.00000000E+00  0.00000000E+00  0.00000000E+00
  0.00000000E+00  0.00000000E+00  0.00000000E+00
  0.00000000E+00  0.00000000E+00  0.00000000E+00
  0.00000000E+00  0.00000000E+00  0.00000000E+00
  0.00000000E+00  0.00000000E+00  0.00000000E+00
  0.00000000E+00  0.00000000E+00  0.00000000E+00
  0.00000000E+00  0.00000000E+00  0.00000000E+00
  0.00000000E+00  0.00000000E+00  0.00000000E+00
  0.00000000E+00  0.00000000E+00  0.00000000E+00
  0.00000000E+00  0.00000000E+00  0.00000000E+00
  0.00000000E+00  0.00000000E+00  0.00000000E+00
  0.00000000E+00  0.00000000E+00  0.00000000E+00
  0.00000000E+00  0.00000000E+00  0.00000000E+00
  0.00000000E+00  0.00000000E+00  0.00000000E+00
  0.00000000E+00  0.00000000E+00  0.00000000E+00
  0.00000000E+00  0.00000000E+00  0.00000000E+00
  0.00000000E+00  0.00000000E+00  0.00000000E+00
  0.00000000E+00  0.00000000E+00  0.00000000E+00
  0.00000000E+00  0.00000000E+00  0.00000000E+00
  0.00000000E+00  0.00000000E+00  0.00000000E+00
  0.00000000E+00  0.00000000E+00  0.00000000E+00
  0.00000000E+00  0.00000000E+00  0.00000000E+00
  0.00000000E+00  0.00000000E+00  0.00000000E+00
  0.00000000E+00  0.00000000E+00  0.00000000E+00
  0.00000000E+00  0.00000000E+00  0.00000000E+00
  0.00000000E+00  0.00000000E+00  0.00000000E+00
  0.00000000E+00  0.00000000E+00  0.00000000E+00
  0.00000000E+00  0.00000000E+00  0.00000000E+00
  0.00000000E+00  0.00000000E+00  0.00000000E+00
  0.00000000E+00  0.00000000E+00  0.00000000E+00
  0.00000000E+00  0.00000000E+00  0.00000000E+00
  0.00000000E+00  0.00000000E+00  0.00000000E+00
  0.00000000E+00  0.00000000E+00  0.00000000E+00
  0.00000000E+00  0.00000000E+00  0.00000000E+00
  0.00000000E+00  0.00000000E+00  0.00000000E+00
  0.00000000E+00  0.00000000E+00  0.00000000E+00
  0.00000000E+00  0.00000000E+00  0.00000000E+00
  0.00000000E+00  0.00000000E+00  0.00000000E+00
  0.00000000E+00  0.00000000E+00  0.00000000E+00
  0.00000000E+00  0.00000000E+00  0.00000000E+00
  0.00000000E+00  0.00000000E+00  0.00000000E+00
  0.00000000E+00  0.00000000E+00  0.00000000E+00
  0.00000000E+00  0.00000000E+00  0.00000000E+00
  0.00000000E+00  0.00000000E+00  0.00000000E+00
  0.00000000E+00  0.00000000E+00  0.00000000E+00
  0.00000000E+00  0.00000000E+00  0.00000000E+00
  0.00000000E+00  0.00000000E+00  0.00000000E+00
  0.00000000E+00  0.00000000E+00  0.00000000E+00
  0.00000000E+00  0.00000000E+00  0.00000000E+00
  0.00000000E+00  0.00000000E+00  0.00000000E+00
  0.00000000E+00  0.00000000E+00  0.00000000E+00
  0.00000000E+00  0.00000000E+00  0.00000000E+00
  0.00000000E+00  0.00000000E+00  0.00000000E+00
  0.00000000E+00  0.00000000E+00  0.00000000E+00
  0.00000000E+00  0.00000000E+00  0.00000000E+00
  0.00000000E+00  0.00000000E+00  0.00000000E+00
  0.00000000E+00  0.00000000E+00  0.00000000E+00
  0.00000000E+00  0.00000000E+00  0.00000000E+00
  0.00000000E+00  0.00000000E+00  0.00000000E+00
  0.00000000E+00  0.00000000E+00  0.00000000E+00
  0.00000000E+00  0.00000000E+00  0.00000000E+00
  0.00000000E+00  0.00000000E+00  0.00000000E+00
  0.00000000E+00  0.00000000E+00  0.00000000E+00
  0.00000000E+00  0.00000000E+00  0.00000000E+00
  0.00000000E+00  0.00000000E+00  0.00000000E+00
  0.00000000E+00  0.00000000E+00  0.00000000E+00
  0.00000000E+00  0.00000000E+00  0.00000000E+00
  0.00000000E+00  0.00000000E+00  0.00000000E+00
  0.00000000E+00  0.00000000E+00  0.00000000E+00
  0.00000000E+00  0.00000000E+00  0.00000000E+00
  0.00000000E+00  0.00000000E+00  0.00000000E+00
  0.00000000E+00  0.00000000E+00  0.00000000E+00
  0.00000000E+00  0.00000000E+00  0.00000000E+00
  0.00000000E+00  0.00000000E+00  0.00000000E+00
  0.00000000E+00  0.00000000E+00  0.00000000E+00
  0.00000000E+00  0.00000000E+00  0.00000000E+00
  0.00000000E+00  0.00000000E+00  0.00000000E+00
  0.00000000E+00  0.00000000E+00  0.00000000E+00
  0.00000000E+00  0.00000000E+00  0.00000000E+00
  0.00000000E+00  0.00000000E+00  0.00000000E+00
  0.00000000E+00  0.00000000E+00  0.00000000E+00
  0.00000000E+00  0.00000000E+00  0.00000000E+00
  0.00000000E+00  0.00000000E+00  0.00000000E+00
  0.00000000E+00  0.00000000E+00  0.00000000E+00
  0.00000000E+00  0.00000000E+00  0.00000000E+00
  0.00000000E+00  0.00000000E+00  0.00000000E+00
  0.00000000E+00  0.00000000E+00  0.00000000E+00
  0.00000000E+00  0.00000000E+00  0.00000000E+00
  0.00000000E+00  0.00000000E+00  0.00000000E+00
  0.00000000E+00  0.00000000E+00  0.00000000E+00
  0.00000000E+00  0.00000000E+00  0.00000000E+00
  0.00000000E+00  0.00000000E+00  0.00000000E+00
  0.00000000E+00  0.00000000E+00  0.00000000E+00
  0.00000000E+00  0.00000000E+00  0.00000000E+00
  0.00000000E+00  0.00000000E+00  0.00000000E+00
  0.00000000E+00  0.00000000E+00  0.00000000E+00
  0.00000000E+00  0.00000000E+00  0.00000000E+00
  0.00000000E+00  0.00000000E+00  0.00000000E+00
  0.00000000E+00  0.00000000E+00  0.00000000E+00
  0.00000000E+00  0.00000000E+00  0.00000000E+00
  0.00000000E+00  0.00000000E+00  0.00000000E+00
  0.00000000E+00  0.00000000E+00  0.00000000E+00
  0.00000000E+00  0.00000000E+00  0.00000000E+00
  0.00000000E+00  0.00000000E+00  0.00000000E+00
  0.00000000E+00  0.00000000E+00  0.00000000E+00
  0.00000000E+00  0.00000000E+00  0.00000000E+00
  0.00000000E+00  0.00000000E+00  0.00000000E+00
  0.00000000E+00  0.00000000E+00  0.00000000E+00
  0.00000000E+00  0.00000000E+00  0.00000000E+00
  0.00000000E+00  0.00000000E+00  0.00000000E+00
  0.00000000E+00  0.00000000E+00  0.00000000E+00
  0.00000000E+00  0.00000000E+00  0.00000000E+00
  0.00000000E+00  0.00000000E+00  0.00000000E+00
  0.00000000E+00  0.00000000E+00  0.00000000E+00
  0.00000000E+00  0.00000000E+00  0.00000000E+00
  0.00000000E+00  0.00000000E+00  0.00000000E+00
  0.00000000E+00  0.00000000E+00  0.00000000E+00
  0.00000000E+00  0.00000000E+00  0.00000000E+00
  0.00000000E+00  0.00000000E+00  0.00000000E+00
  0.00000000E+00  0.00000000E+00  0.00000000E+00
  0.00000000E+00  0.00000000E+00  0.00000000E+00
  0.00000000E+00  0.00000000E+00  0.00000000E+00
  0.00000000E+00  0.00000000E+00  0.00000000E+00
  0.00000000E+00  0.00000000E+00  0.00000000E+00
  0.00000000E+00  0.00000000E+00  0.00000000E+00
  0.00000000E+00  0.00000000E+00  0.00000000E+00
  0.00000000E+00  0.00000000E+00  0.00000000E+00
  0.00000000E+00  0.00000000E+00  0.00000000E+00
  0.00000000E+00  0.00000000E+00  0.00000000E+00
  0.00000000E+00  0.00000000E+00  0.00000000E+00
  0.00000000E+00  0.00000000E+00  0.00000000E+00
  0.00000000E+00  0.00000000E+00  0.00000000E+00
  0.00000000E+00  0.00000000E+00  0.00000000E+00
  0.00000000E+00  0.00000000E+00  0.00000000E+00
  0.00000000E+00  0.00000000E+00  0.00000000E+00
  0.00000000E+00  0.00000000E+00  0.00000000E+00
  0.00000000E+00  0.00000000E+00  0.00000000E+00
  0.00000000E+00  0.00000000E+00  0.00000000E+00
  0.00000000E+00  0.00000000E+00  0.00000000E+00
  0.00000000E+00  0.00000000E+00  0.00000000E+00
  0.00000000E+00  0.00000000E+00  0.00000000E+00
  0.00000000E+00  0.00000000E+00  0.00000000E+00
  0.00000000E+00  0.00000000E+00  0.00000000E+00
  0.00000000E+00  0.00000000E+00  0.00000000E+00
  0.00000000E+00  0.00000000E+00  0.00000000E+00
  0.00000000E+00  0.00000000E+00  0.00000000E+00
  0.00000000E+00  0.00000000E+00  0.00000000E+00
  0.00000000E+00  0.00000000E+00  0.00000000E+00
  0.00000000E+00  0.00000000E+00  0.00000000E+00
  0.00000000E+00  0.00000000E+00  0.00000000E+00
  0.00000000E+00  0.00000000E+00  0.00000000E+00
  0.00000000E+00  0.00000000E+00  0.00000000E+00
  0.00000000E+00  0.00000000E+00  0.00000000E+00
  0.00000000E+00  0.00000000E+00  0.00000000E+00
  0.00000000E+00  0.00000000E+00  0.00000000E+00
  0.00000000E+00  0.00000000E+00  0.00000000E+00
  0.00000000E+00  0.00000000E+00  0.00000000E+00
  0.00000000E+00  0.00000000E+00  0.00000000E+00
  0.00000000E+00  0.00000000E+00  0.00000000E+00
  0.00000000E+00  0.00000000E+00  0.00000000E+00
  0.00000000E+00  0.00000000E+00  0.00000000E+00
  0.00000000E+00  0.00000000E+00  0.00000000E+00
  0.00000000E+00  0.00000000E+00  0.00000000E+00
  0.00000000E+00  0.00000000E+00  0.00000000E+00
  0.00000000E+00  0.00000000E+00  0.00000000E+00
  0.00000000E+00  0.00000000E+00  0.00000000E+00
  0.00000000E+00  0.00000000E+00  0.00000000E+00
  0.00000000E+00  0.00000000E+00  0.00000000E+00
  0.00000000E+00  0.00000000E+00  0.00000000E+00
  0.00000000E+00  0.00000000E+00  0.00000000E+00
  0.00000000E+00  0.00000000E+00  0.00000000E+00
  0.00000000E+00  0.00000000E+00  0.00000000E+00
  0.00000000E+00  0.00000000E+00  0.00000000E+00
  0.00000000E+00  0.00000000E+00  0.00000000E+00
  0.00000000E+00  0.00000000E+00  0.00000000E+00
  0.00000000E+00  0.00000000E+00  0.00000000E+00
  0.00000000E+00  0.00000000E+00  0.00000000E+00
  0.00000000E+00  0.00000000E+00  0.00000000E+00
  0.00000000E+00  0.00000000E+00  0.00000000E+00
  0.00000000E+00  0.00000000E+00  0.00000000E+00
  0.00000000E+00  0.00000000E+00  0.00000000E+00
  0.00000000E+00  0.00000000E+00  0.00000000E+00
  0.00000000E+00  0.00000000E+00  0.00000000E+00
  0.00000000E+00  0.00000000E+00  0.00000000E+00
  0.00000000E+00  0.00000000E+00  0.00000000E+00
  0.00000000E+00  0.00000000E+00  0.00000000E+00
  0.00000000E+00  0.00000000E+00  0.00000000E+00
  0.00000000E+00  0.00000000E+00  0.00000000E+00
  0.00000000E+00  0.00000000E+00  0.00000000E+00
  0.00000000E+00  0.00000000E+00  0.00000000E+00
  0.00000000E+00  0.00000000E+00  0.00000000E+00
  0.00000000E+00  0.00000000E+00  0.00000000E+00
  0.00000000E+00  0.00000000E+00  0.00000000E+00
  0.00000000E+00  0.00000000E+00  0.00000000E+00
  0.00000000E+00  0.00000000E+00  0.00000000E+00
  0.00000000E+00  0.00000000E+00  0.00000000E+00
  0.00000000E+00  0.00000000E+00  0.00000000E+00
  0.00000000E+00  0.00000000E+00  0.00000000E+00
  0.00000000E+00  0.00000000E+00  0.00000000E+00
  0.00000000E+00  0.00000000E+00  0.00000000E+00
  0.00000000E+00  0.00000000E+00  0.00000000E+00
  0.00000000E+00  0.00000000E+00  0.00000000E+00
  0.00000000E+00  0.00000000E+00  0.00000000E+00
  0.00000000E+00  0.00000000E+00  0.00000000E+00
  0.00000000E+00  0.00000000E+00  0.00000000E+00
  0.00000000E+00  0.00000000E+00  0.00000000E+00
  0.00000000E+00  0.00000000E+00  0.00000000E+00
  0.00000000E+00  0.00000000E+00  0.00000000E+00
  0.00000000E+00  0.00000000E+00  0.00000000E+00
  0.00000000E+00  0.00000000E+00  0.00000000E+00
  0.00000000E+00  0.00000000E+00  0.00000000E+00
  0.00000000E+00  0.00000000E+00  0.00000000E+00
  0.00000000E+00  0.00000000E+00  0.00000000E+00
  0.00000000E+00  0.00000000E+00  0.00000000E+00
  0.00000000E+00  0.00000000E+00  0.00000000E+00
  0.00000000E+00  0.00000000E+00  0.00000000E+00
  0.00000000E+00  0.00000000E+00  0.00000000E+00
  0.00000000E+00  0.00000000E+00  0.00000000E+00
  0.00000000E+00  0.00000000E+00  0.00000000E+00
  0.00000000E+00  0.00000000E+00  0.00000000E+00
  0.00000000E+00  0.00000000E+00  0.00000000E+00
  0.00000000E+00  0.00000000E+00  0.00000000E+00
  0.00000000E+00  0.00000000E+00  0.00000000E+00
  0.00000000E+00  0.00000000E+00  0.00000000E+00
  0.00000000E+00  0.00000000E+00  0.00000000E+00
  0.00000000E+00  0.00000000E+00  0.00000000E+00
  0.00000000E+00  0.00000000E+00  0.00000000E+00
  0.00000000E+00  0.00000000E+00  0.00000000E+00
  0.00000000E+00  0.00000000E+00  0.00000000E+00
  0.00000000E+00  0.00000000E+00  0.00000000E+00
  0.00000000E+00  0.00000000E+00  0.00000000E+00
  0.00000000E+00  0.00000000E+00  0.00000000E+00
  0.00000000E+00  0.00000000E+00  0.00000000E+00
  0.00000000E+00  0.00000000E+00  0.00000000E+00
  0.00000000E+00  0.00000000E+00  0.00000000E+00
  0.00000000E+00  0.00000000E+00  0.00000000E+00
  0.00000000E+00  0.00000000E+00  0.00000000E+00
  0.00000000E+00  0.00000000E+00  0.00000000E+00
  0.00000000E+00  0.00000000E+00  0.00000000E+00
  0.00000000E+00  0.00000000E+00  0.00000000E+00
  0.00000000E+00  0.00000000E+00  0.00000000E+00
  0.00000000E+00  0.00000000E+00  0.00000000E+00
  0.00000000E+00  0.00000000E+00  0.00000000E+00
  0.00000000E+00  0.00000000E+00  0.00000000E+00
  0.00000000E+00  0.00000000E+00  0.00000000E+00
  0.00000000E+00  0.00000000E+00  0.00000000E+00
  0.00000000E+00  0.00000000E+00  0.00000000E+00
