 W                                      
   1.00000000000000     
     4.5120332854864431    0.0000000000000000    0.0000000000000000
     0.0000000000000000    2.7630497480063796    0.0000000000000000
     0.0000000000000000    0.0000000000000000   70.3356453907495904
   W 
    48
Direct
  0.0000000000000000  0.0326971752576667  0.0129081673476081
  0.5000011279425181  0.6808292570124177  0.0282850408620584
 -0.0000000000000000  0.3248724904303938  0.0468615629198383
  0.5000011279425181  0.9956256849464393  0.0650479386355508
 -0.0000000000000000  0.6666512736211163  0.0838659801478656
  0.5000011279425181  0.3366498760227334  0.1019080520822663
 -0.0000000000000000  0.9984568248665419  0.1202540848173212
  0.5000011279425181  0.6668380951492004  0.1385160633460336
  0.0000000000000000  0.3330522138357379  0.1570082453969822
  0.5000011279425181  1.0009433787971012  0.1753253091765779
 -0.0000000000000000  0.6652800933301632  0.1936993973430100
  0.5000011279425181  0.3320680398999340  0.2119997508990212
 -0.0000000000000000  0.9982794525588624  0.2304067909285411
  0.5000011279425181  0.6658580888644875  0.2487778759144386
 -0.0000000000000000  0.3320716552437898  0.2671711084994809
  0.5000011279425181  0.9987552299863312  0.2855226702293807
 -0.0000000000000000  0.6653816184419976  0.3039047692349136
  0.5000011279425181  0.3321402341526675  0.3222670095562963
 -0.0000000000000000  0.9986861602042099  0.3406847438816336
  0.5000011279425181  0.6655976140637110  0.3590545933079841
 -0.0000000000000000  0.3332803343998154  0.3774917139389262
  0.5000011279425181  0.0020542095520791  0.3957434562150347
 -0.0000000000000000  0.6639761757049595  0.4142285509182504
  0.5000011279425181  0.3316667010282287  0.4321489528155519
 -0.0000000000000000  0.9872076321077438  0.4516273796143827
  0.5000011279425181  0.3270570602804282  0.4711069817639110
 -0.0000000000000000  0.6608373479032538  0.4890343903106711
  0.5000011279425181 -0.0010364074036606  0.5075089854149097
 -0.0000000000000000  0.3311482096872962  0.5257560214728586
  0.5000011279425181  0.6635517346005588  0.5441780525177768
 -0.0000000000000000  0.9968077179969201  0.5625824606218111
  0.5000011279425181  0.3302458467513109  0.5809809415725885
 -0.0000000000000000  0.6641285427531863  0.5993475546158462
  0.5000011279425181  0.9976192320282979  0.6176943431687417
 -0.0000000000000000  0.3313860369162982  0.6360871813427099
  0.5000011279425181  0.6642076689625579  0.6544594611922102
  0.0000000000000000  0.9979123042688863  0.6728682252426524
  0.5000011279425181  0.3313933373065986  0.6911753260268841
 -0.0000000000000000  0.6667095292279326  0.7095434899916347
  0.5000011279425181  0.9991157134717086  0.7278646297316811
 -0.0000000000000000  0.3328786166030768  0.7463515640822385
  0.5000011279425181  0.6644345046723212  0.7646169536756333
  0.0000000000000000  0.0025118902346151  0.7829636474396836
  0.5000011279425181  0.3325566912863747  0.8010060896974671
  0.0000000000000000  0.6616290741716893  0.8198228681108013
  0.5000011279425181  0.9908271354322493  0.8380073659519858
 -0.0000000000000000  0.3465049467593986  0.8565868886662973
  0.5000011279425181  0.6986202336821377  0.8719617821134693
 
  0.00000000E+00  0.00000000E+00  0.00000000E+00
  0.00000000E+00  0.00000000E+00  0.00000000E+00
  0.00000000E+00  0.00000000E+00  0.00000000E+00
  0.00000000E+00  0.00000000E+00  0.00000000E+00
  0.00000000E+00  0.00000000E+00  0.00000000E+00
  0.00000000E+00  0.00000000E+00  0.00000000E+00
  0.00000000E+00  0.00000000E+00  0.00000000E+00
  0.00000000E+00  0.00000000E+00  0.00000000E+00
  0.00000000E+00  0.00000000E+00  0.00000000E+00
  0.00000000E+00  0.00000000E+00  0.00000000E+00
  0.00000000E+00  0.00000000E+00  0.00000000E+00
  0.00000000E+00  0.00000000E+00  0.00000000E+00
  0.00000000E+00  0.00000000E+00  0.00000000E+00
  0.00000000E+00  0.00000000E+00  0.00000000E+00
  0.00000000E+00  0.00000000E+00  0.00000000E+00
  0.00000000E+00  0.00000000E+00  0.00000000E+00
  0.00000000E+00  0.00000000E+00  0.00000000E+00
  0.00000000E+00  0.00000000E+00  0.00000000E+00
  0.00000000E+00  0.00000000E+00  0.00000000E+00
  0.00000000E+00  0.00000000E+00  0.00000000E+00
  0.00000000E+00  0.00000000E+00  0.00000000E+00
  0.00000000E+00  0.00000000E+00  0.00000000E+00
  0.00000000E+00  0.00000000E+00  0.00000000E+00
  0.00000000E+00  0.00000000E+00  0.00000000E+00
  0.00000000E+00  0.00000000E+00  0.00000000E+00
  0.00000000E+00  0.00000000E+00  0.00000000E+00
  0.00000000E+00  0.00000000E+00  0.00000000E+00
  0.00000000E+00  0.00000000E+00  0.00000000E+00
  0.00000000E+00  0.00000000E+00  0.00000000E+00
  0.00000000E+00  0.00000000E+00  0.00000000E+00
  0.00000000E+00  0.00000000E+00  0.00000000E+00
  0.00000000E+00  0.00000000E+00  0.00000000E+00
  0.00000000E+00  0.00000000E+00  0.00000000E+00
  0.00000000E+00  0.00000000E+00  0.00000000E+00
  0.00000000E+00  0.00000000E+00  0.00000000E+00
  0.00000000E+00  0.00000000E+00  0.00000000E+00
  0.00000000E+00  0.00000000E+00  0.00000000E+00
  0.00000000E+00  0.00000000E+00  0.00000000E+00
  0.00000000E+00  0.00000000E+00  0.00000000E+00
  0.00000000E+00  0.00000000E+00  0.00000000E+00
  0.00000000E+00  0.00000000E+00  0.00000000E+00
  0.00000000E+00  0.00000000E+00  0.00000000E+00
  0.00000000E+00  0.00000000E+00  0.00000000E+00
  0.00000000E+00  0.00000000E+00  0.00000000E+00
  0.00000000E+00  0.00000000E+00  0.00000000E+00
  0.00000000E+00  0.00000000E+00  0.00000000E+00
  0.00000000E+00  0.00000000E+00  0.00000000E+00
  0.00000000E+00  0.00000000E+00  0.00000000E+00
