 W                                      
   1.00000000000000     
     4.5120332854864431    0.0000000000000000    0.0000000000000000
     2.2560217320574161    7.4823606220095691    0.0000000000000000
     0.0000000000000000    0.0000000000000000   74.0716091547049444
   W 
   132
Direct
  0.9993549018310313  0.0012901896059223  0.0112791607995405
  0.8232639801097833  0.3534712395619748  0.0171533395710787
  0.6411486098782954  0.7177011666505735  0.0226582152816605
  0.4556132590162973  0.0887755424406050  0.0273588404163954
  0.2725450542166586  0.4549111238189986  0.0334039088499211
  0.0890625702898469  0.8218752690028970  0.0398971016960692
  0.9046367654000619  0.1907260473329044  0.0471266880709227
  0.7227866310146505  0.5544254941091172  0.0533572727426970
  0.5417523164816205  0.9164932993945518  0.0599442419628878
  0.3603701320381239  0.2792613671682675  0.0660730435296325
  0.1798902466632748  0.6402203202196801  0.0726636861982661
  0.9984424013589153  0.0031151956458890  0.0791085391551977
  0.8160726636121971  0.3678538469235357  0.0856020765102095
  0.6342963784071131  0.7314055988866209  0.0920473190187849
  0.4521044014317133  0.0957932427463922  0.0983438221432424
  0.2706241784786174  0.4587528700873362  0.1046733661753714
  0.0885901450114524  0.8228201135816832  0.1110351606915836
  0.9065355667184090  0.1869284488053282  0.1176074692743475
  0.7246667477970820  0.5506652649602619  0.1240615674922187
  0.5429211077564655  0.9141557257566381  0.1304968476144832
  0.3613489546265581  0.2773037228629227  0.1369247185092735
  0.1796231311703460  0.6407545517394888  0.1433373988152475
  0.9979002721043086  0.0041994487914713  0.1497375612392056
  0.8158407490997559  0.3683176751474611  0.1562599852747835
  0.6338776598003546  0.7322430319419199  0.1626954583662173
  0.4519103767561750  0.0961812900699211  0.1691346929789797
  0.2700337436453831  0.4599337347915725  0.1755206369718993
  0.0881613882026796  0.8236776256065332  0.1819443746710587
  0.9062297885096353  0.1875400034491053  0.1883412500135773
  0.7242908462100539  0.5514170680054339  0.1948237426775581
  0.5424003442496097  0.9151972508922517  0.2012756336700239
  0.3605758734358237  0.2788498842132726  0.2077175094308508
  0.1787836725508825  0.6424334646882439  0.2141400365098546
  0.9970641261848541  0.0058717371960784  0.2205949158277471
  0.8152100313070741  0.3695791057030693  0.2270001560053535
  0.6333047850055085  0.7333887784536129  0.2334724904798919
  0.4513894966123897  0.0972230460513606  0.2399320625499487
  0.2694786273632501  0.4610439646123415  0.2463819112129897
  0.0876172958543121  0.8247658058627102  0.2527810577578745
  0.9057724641089810  0.1884546489238449  0.2592054531048652
  0.7239345693289403  0.5521296169404529  0.2656255863723829
  0.5419786929694150  0.9160405492913520  0.2721071647717454
  0.3600883947284618  0.2798248364417519  0.2785430973931917
  0.1782390046879773  0.6435227963970085  0.2850370098764128
  0.9964335059763091  0.0071329730222669  0.2914315517700306
  0.8147649427047561  0.3704692792957233  0.2978827961362700
  0.6329594852818702  0.7340793732424700  0.3042998060786927
  0.4509456411801806  0.0981107527621591  0.3107626017895538
  0.2690427142000723  0.4619157856358381  0.3172170859615867
  0.0870101584439314  0.8259800770162534  0.3237537227970458
  0.9051536132541127  0.1896923458339932  0.3301171991974274
  0.7236273165073087  0.5527441206043354  0.3364930186547129
  0.5415115556212103  0.9169748206335600  0.3429045479850134
  0.3596057413524441  0.2807901389772568  0.3494553378289379
  0.1779972241271874  0.6440063535444955  0.3559271734668042
  0.9951119249436704  0.0097761277129265  0.3623973979497524
  0.8150440284709355  0.3699111060018955  0.3689277519953372
  0.6332076882450640  0.7335829690407347  0.3749543065524443
  0.4498298747334882  0.1003422758799041  0.3817520490209603
  0.2716858226312314  0.4566295825585329  0.3880536582284606
  0.0851491470032145  0.8297020896970447  0.3939488368209100
  0.9050123847768448  0.1899748048722519  0.4027297406712998
  0.7254625740217978  0.5490736117712403  0.4069132189312075
  0.5355879245103833  0.9288220491905735  0.4124150191170648
  0.3606072034062161  0.2787872160297235  0.4221380406716701
  0.1747189978344039  0.6505627856704160  0.4241076146125634
  0.8107285361901556  0.3785420462470173  0.4422768604972261
  0.6241672402053947  0.7516638022865378  0.4416216065935639
  0.9902494249721306  0.0195011001000811  0.4457709606132407
  0.1735808700977771  0.6528390337724430  0.4594498073869919
  0.3568051822742692  0.2863912483016313  0.4622393460779726
  0.5326048325050442  0.9347882232859682  0.4707662293731472
  0.7215544138569721  0.5568899207218346  0.4769518864552600
  0.9010600872230802  0.1978793876738998  0.4816270619176619
  0.0812317478857622  0.8375368736681795  0.4895265269142438
  0.2667288348025050  0.4665435432678850  0.4959278085778763
  0.4454186153448432  0.1091647794034476  0.5018766937085531
  0.6282329561006675  0.7435324161166649  0.5086645943063042
  0.8103823086475747  0.3792345286014525  0.5149187435608006
  0.9905893507676417  0.0188212581324926  0.5213642000700273
  0.1730202653559125  0.6539602525975786  0.5278048539031173
  0.3549082696784397  0.2901850636762398  0.5343573424168039
  0.5365913253502859  0.9268152619525002  0.5407536994491684
  0.7186171090792892  0.5627645150651912  0.5472542622642846
  0.9003242709297697  0.1993510094890761  0.5536259405726267
  0.0820630111808484  0.8358743491801474  0.5600664557814029
  0.2639819118270781  0.4720373676451272  0.5665322792325790
  0.4458561994375801  0.1082896129190199  0.5730098798290846
  0.6276817477497285  0.7446348250084706  0.5794102355179531
  0.8094527483192960  0.3810936438968380  0.5858896822641437
  0.9912307657563179  0.0175384288057132  0.5923006109264035
  0.1729844131847159  0.6540319540123501  0.5987611233673840
  0.3548539370757895  0.2902937263436174  0.6051946307017747
  0.5366309894304012  0.9267359304227348  0.6116508290726858
  0.7185599314600516  0.5628788667346464  0.6180602577091260
  0.9003139533580420  0.1993716430520923  0.6245298948438663
  0.0822403740913758  0.8355196213214124  0.6309425508463810
  0.2640455191122587  0.4719101513899988  0.6374048556356775
  0.4458866166983840  0.1082287764867622  0.6438357907738044
  0.6275759460147272  0.7448464262812122  0.6502973779967050
  0.8093793328454161  0.3812404731322179  0.6567142583715845
  0.9911337066193443  0.0177325454479836  0.6631591282108188
  0.1729613567000554  0.6540780657971051  0.6696001718125838
  0.3548001466274422  0.2904013058348226  0.6760766775879361
  0.5366967957107696  0.9266043167848478  0.6824800976529070
  0.7185274963065090  0.5629437351943042  0.6889105799325669
  0.9003782694979920  0.1992430095753603  0.6953012352773603
  0.0822878970689894  0.8354245740926299  0.7017314801202196
  0.2642031892753486  0.4715948109625517  0.7081684845377187
  0.4462178023383965  0.1075664045395876  0.7146810676617110
  0.6279267908437389  0.7441447361444535  0.7210867423903944
  0.8096165859064485  0.3807659640334402  0.7275103728510235
  0.9911883855090261  0.0176231851040522  0.7339317410894314
  0.1728672263803516  0.6542663226803128  0.7403646204178521
  0.3547070059774441  0.2905875846153333  0.7468220539997472
  0.5366957144854592  0.9266064772745070  0.7533951661950981
  0.7187323167068244  0.5625340956119864  0.7597521924782712
  0.9002058734154562  0.1995878006663618  0.7660877109748121
  0.0823832524311802  0.8352338641354285  0.7723892070998205
  0.2641437285025243  0.4717137306055588  0.7788243046228503
  0.4464811985396940  0.1070396144674450  0.7853272612281753
  0.6279235028880462  0.7441513094688446  0.7917632891097903
  0.8083880276303429  0.3832230774370460  0.7983554346118953
  0.9897709915394233  0.0204579625973829  0.8044843214799312
  0.1707793287682031  0.6584421119112457  0.8110746451884762
  0.3526156788088595  0.2947702339626384  0.8173054162670451
  0.5369836348001030  0.9260306415583597  0.8245401500692062
  0.7204844825679670  0.5590297688795580  0.8310296914488774
  0.9035174177300936  0.1929647267642357  0.8370847367466335
  0.0891598745466915  0.8216806504634627  0.8417566371485821
  0.2712587790993953  0.4574836548950554  0.8472834654945428
  0.4472114207623216  0.1055791657479486  0.8531573129812545
 
  0.00000000E+00  0.00000000E+00  0.00000000E+00
  0.00000000E+00  0.00000000E+00  0.00000000E+00
  0.00000000E+00  0.00000000E+00  0.00000000E+00
  0.00000000E+00  0.00000000E+00  0.00000000E+00
  0.00000000E+00  0.00000000E+00  0.00000000E+00
  0.00000000E+00  0.00000000E+00  0.00000000E+00
  0.00000000E+00  0.00000000E+00  0.00000000E+00
  0.00000000E+00  0.00000000E+00  0.00000000E+00
  0.00000000E+00  0.00000000E+00  0.00000000E+00
  0.00000000E+00  0.00000000E+00  0.00000000E+00
  0.00000000E+00  0.00000000E+00  0.00000000E+00
  0.00000000E+00  0.00000000E+00  0.00000000E+00
  0.00000000E+00  0.00000000E+00  0.00000000E+00
  0.00000000E+00  0.00000000E+00  0.00000000E+00
  0.00000000E+00  0.00000000E+00  0.00000000E+00
  0.00000000E+00  0.00000000E+00  0.00000000E+00
  0.00000000E+00  0.00000000E+00  0.00000000E+00
  0.00000000E+00  0.00000000E+00  0.00000000E+00
  0.00000000E+00  0.00000000E+00  0.00000000E+00
  0.00000000E+00  0.00000000E+00  0.00000000E+00
  0.00000000E+00  0.00000000E+00  0.00000000E+00
  0.00000000E+00  0.00000000E+00  0.00000000E+00
  0.00000000E+00  0.00000000E+00  0.00000000E+00
  0.00000000E+00  0.00000000E+00  0.00000000E+00
  0.00000000E+00  0.00000000E+00  0.00000000E+00
  0.00000000E+00  0.00000000E+00  0.00000000E+00
  0.00000000E+00  0.00000000E+00  0.00000000E+00
  0.00000000E+00  0.00000000E+00  0.00000000E+00
  0.00000000E+00  0.00000000E+00  0.00000000E+00
  0.00000000E+00  0.00000000E+00  0.00000000E+00
  0.00000000E+00  0.00000000E+00  0.00000000E+00
  0.00000000E+00  0.00000000E+00  0.00000000E+00
  0.00000000E+00  0.00000000E+00  0.00000000E+00
  0.00000000E+00  0.00000000E+00  0.00000000E+00
  0.00000000E+00  0.00000000E+00  0.00000000E+00
  0.00000000E+00  0.00000000E+00  0.00000000E+00
  0.00000000E+00  0.00000000E+00  0.00000000E+00
  0.00000000E+00  0.00000000E+00  0.00000000E+00
  0.00000000E+00  0.00000000E+00  0.00000000E+00
  0.00000000E+00  0.00000000E+00  0.00000000E+00
  0.00000000E+00  0.00000000E+00  0.00000000E+00
  0.00000000E+00  0.00000000E+00  0.00000000E+00
  0.00000000E+00  0.00000000E+00  0.00000000E+00
  0.00000000E+00  0.00000000E+00  0.00000000E+00
  0.00000000E+00  0.00000000E+00  0.00000000E+00
  0.00000000E+00  0.00000000E+00  0.00000000E+00
  0.00000000E+00  0.00000000E+00  0.00000000E+00
  0.00000000E+00  0.00000000E+00  0.00000000E+00
  0.00000000E+00  0.00000000E+00  0.00000000E+00
  0.00000000E+00  0.00000000E+00  0.00000000E+00
  0.00000000E+00  0.00000000E+00  0.00000000E+00
  0.00000000E+00  0.00000000E+00  0.00000000E+00
  0.00000000E+00  0.00000000E+00  0.00000000E+00
  0.00000000E+00  0.00000000E+00  0.00000000E+00
  0.00000000E+00  0.00000000E+00  0.00000000E+00
  0.00000000E+00  0.00000000E+00  0.00000000E+00
  0.00000000E+00  0.00000000E+00  0.00000000E+00
  0.00000000E+00  0.00000000E+00  0.00000000E+00
  0.00000000E+00  0.00000000E+00  0.00000000E+00
  0.00000000E+00  0.00000000E+00  0.00000000E+00
  0.00000000E+00  0.00000000E+00  0.00000000E+00
  0.00000000E+00  0.00000000E+00  0.00000000E+00
  0.00000000E+00  0.00000000E+00  0.00000000E+00
  0.00000000E+00  0.00000000E+00  0.00000000E+00
  0.00000000E+00  0.00000000E+00  0.00000000E+00
  0.00000000E+00  0.00000000E+00  0.00000000E+00
  0.00000000E+00  0.00000000E+00  0.00000000E+00
  0.00000000E+00  0.00000000E+00  0.00000000E+00
  0.00000000E+00  0.00000000E+00  0.00000000E+00
  0.00000000E+00  0.00000000E+00  0.00000000E+00
  0.00000000E+00  0.00000000E+00  0.00000000E+00
  0.00000000E+00  0.00000000E+00  0.00000000E+00
  0.00000000E+00  0.00000000E+00  0.00000000E+00
  0.00000000E+00  0.00000000E+00  0.00000000E+00
  0.00000000E+00  0.00000000E+00  0.00000000E+00
  0.00000000E+00  0.00000000E+00  0.00000000E+00
  0.00000000E+00  0.00000000E+00  0.00000000E+00
  0.00000000E+00  0.00000000E+00  0.00000000E+00
  0.00000000E+00  0.00000000E+00  0.00000000E+00
  0.00000000E+00  0.00000000E+00  0.00000000E+00
  0.00000000E+00  0.00000000E+00  0.00000000E+00
  0.00000000E+00  0.00000000E+00  0.00000000E+00
  0.00000000E+00  0.00000000E+00  0.00000000E+00
  0.00000000E+00  0.00000000E+00  0.00000000E+00
  0.00000000E+00  0.00000000E+00  0.00000000E+00
  0.00000000E+00  0.00000000E+00  0.00000000E+00
  0.00000000E+00  0.00000000E+00  0.00000000E+00
  0.00000000E+00  0.00000000E+00  0.00000000E+00
  0.00000000E+00  0.00000000E+00  0.00000000E+00
  0.00000000E+00  0.00000000E+00  0.00000000E+00
  0.00000000E+00  0.00000000E+00  0.00000000E+00
  0.00000000E+00  0.00000000E+00  0.00000000E+00
  0.00000000E+00  0.00000000E+00  0.00000000E+00
  0.00000000E+00  0.00000000E+00  0.00000000E+00
  0.00000000E+00  0.00000000E+00  0.00000000E+00
  0.00000000E+00  0.00000000E+00  0.00000000E+00
  0.00000000E+00  0.00000000E+00  0.00000000E+00
  0.00000000E+00  0.00000000E+00  0.00000000E+00
  0.00000000E+00  0.00000000E+00  0.00000000E+00
  0.00000000E+00  0.00000000E+00  0.00000000E+00
  0.00000000E+00  0.00000000E+00  0.00000000E+00
  0.00000000E+00  0.00000000E+00  0.00000000E+00
  0.00000000E+00  0.00000000E+00  0.00000000E+00
  0.00000000E+00  0.00000000E+00  0.00000000E+00
  0.00000000E+00  0.00000000E+00  0.00000000E+00
  0.00000000E+00  0.00000000E+00  0.00000000E+00
  0.00000000E+00  0.00000000E+00  0.00000000E+00
  0.00000000E+00  0.00000000E+00  0.00000000E+00
  0.00000000E+00  0.00000000E+00  0.00000000E+00
  0.00000000E+00  0.00000000E+00  0.00000000E+00
  0.00000000E+00  0.00000000E+00  0.00000000E+00
  0.00000000E+00  0.00000000E+00  0.00000000E+00
  0.00000000E+00  0.00000000E+00  0.00000000E+00
  0.00000000E+00  0.00000000E+00  0.00000000E+00
  0.00000000E+00  0.00000000E+00  0.00000000E+00
  0.00000000E+00  0.00000000E+00  0.00000000E+00
  0.00000000E+00  0.00000000E+00  0.00000000E+00
  0.00000000E+00  0.00000000E+00  0.00000000E+00
  0.00000000E+00  0.00000000E+00  0.00000000E+00
  0.00000000E+00  0.00000000E+00  0.00000000E+00
  0.00000000E+00  0.00000000E+00  0.00000000E+00
  0.00000000E+00  0.00000000E+00  0.00000000E+00
  0.00000000E+00  0.00000000E+00  0.00000000E+00
  0.00000000E+00  0.00000000E+00  0.00000000E+00
  0.00000000E+00  0.00000000E+00  0.00000000E+00
  0.00000000E+00  0.00000000E+00  0.00000000E+00
  0.00000000E+00  0.00000000E+00  0.00000000E+00
  0.00000000E+00  0.00000000E+00  0.00000000E+00
  0.00000000E+00  0.00000000E+00  0.00000000E+00
  0.00000000E+00  0.00000000E+00  0.00000000E+00
  0.00000000E+00  0.00000000E+00  0.00000000E+00
  0.00000000E+00  0.00000000E+00  0.00000000E+00
