 W                                      
   1.00000000000000     
     4.5120332854864431    0.0000000000000000    0.0000000000000000
     0.0000000000000000    6.9535096267942578    0.0000000000000000
     0.0000000000000000    0.0000000000000000   98.3375610207336592
   W 
   152
Direct
  0.0000000000000000  0.9791746248253165  0.0087509091820386
  0.5000011279425181  0.7187090594564065  0.0129466434358654
  0.0000000000000000  0.3512742975989123  0.0180051272304854
  0.5000011279425181  0.0530545252293448  0.0221416454669942
 -0.0000000000000000  0.7315187408837459  0.0271745965133825
  0.5000011279425181  0.4200055173998282  0.0321372290940958
 -0.0000000000000000  0.1071918990574979  0.0379524312912881
  0.5000011279425181  0.7899646030425004  0.0432082476916861
 -0.0000000000000000  0.4735311577514164  0.0485552179956907
  0.5000011279425181  0.1588036223728037  0.0533709299218387
  0.0000000000000000  0.8405692298468119  0.0585723822268525
  0.5000011279425181  0.5248217613092432  0.0637946695802934
  0.0000000000000000  0.2096880158568342  0.0690601616410386
  0.5000011279425181  0.8939104338620961  0.0743249661337291
 -0.0000000000000000  0.5781766976980083  0.0795120795820992
  0.5000011279425181  0.2621285377527248  0.0846194419835887
 -0.0000000000000000  0.9465633834878545  0.0898876465957832
  0.5000011279425181  0.6304351029323133  0.0950343604072617
 -0.0000000000000000  0.3145141465457644  0.1003257193578920
  0.5000011279425181  0.9990045076962701  0.1055413806681288
  0.0000000000000000  0.6835340583695961  0.1107451734748544
  0.5000011279425181  0.3676364513199071  0.1159630655208620
 -0.0000000000000000  0.0518622696581792  0.1212062389676425
  0.5000011279425181  0.7362304638932519  0.1263756617035499
  0.0000000000000000  0.4204314520298867  0.1316356019544334
  0.5000011279425181  0.1047595863830279  0.1368243977607496
 -0.0000000000000000  0.7892160881088071  0.1420508942610098
  0.5000011279425181  0.4733130052741864  0.1472839471586109
 -0.0000000000000000  0.1575432293371895  0.1525087853511030
  0.5000011279425181  0.8417546383064213  0.1577065519322689
 -0.0000000000000000  0.5260619477864328  0.1629525542521652
  0.5000011279425181  0.2102526140462678  0.1681399843505295
 -0.0000000000000000  0.8945430911714490  0.1733852826495809
  0.5000011279425181  0.5788266758279240  0.1786001701087659
  0.0000000000000000  0.2630885364301591  0.1838216006155215
  0.5000011279425181  0.9471801053348045  0.1890402773229030
 -0.0000000000000000  0.6314907649619813  0.1942680747823028
  0.5000011279425181  0.3157265810027509  0.1994660818335212
 -0.0000000000000000 -0.0000070054746726  0.2047200282279035
  0.5000011279425181  0.6842282433197621  0.2099100597126599
  0.0000000000000000  0.3685068357484046  0.2151557454156124
  0.5000011279425181  0.0525894129449143  0.2203754370315270
 -0.0000000000000000  0.7369204269545309  0.2256001424094075
  0.5000011279425181  0.4210592939466836  0.2308163032457925
 -0.0000000000000000  0.1053687777345352  0.2360614051184810
  0.5000011279425181  0.7896501859225603  0.2412482831989753
 -0.0000000000000000  0.4739186422153564  0.2465134498226270
  0.5000011279425181  0.1580837807568983  0.2517125706546500
 -0.0000000000000000  0.8425143259841359  0.2569605975201969
  0.5000011279425181  0.5266166236685794  0.2621785437181229
 -0.0000000000000000  0.2110227547136173  0.2674227176490301
  0.5000011279425181  0.8951358240715144  0.2726215714524942
  0.0000000000000000  0.5795894530246720  0.2778972976616234
  0.5000011279425181  0.2638261432712164  0.2830595789664447
 -0.0000000000000000  0.9481142415302963  0.2883444736080428
  0.5000011279425181  0.6322243691543431  0.2935480726391717
 -0.0000000000000000  0.3167535880209466  0.2988026308275095
  0.5000011279425181  0.0005027644951269  0.3039851360307850
  0.0000000000000000  0.6851100630743153  0.3092931024150452
  0.5000011279425181  0.3694573751780174  0.3144470799865131
  0.0000000000000000  0.0533388345607462  0.3197063757195783
  0.5000011279425181  0.7378009366010252  0.3249270416171449
 -0.0000000000000000  0.4228443421762008  0.3302277162127685
  0.5000011279425181  0.1057124065026542  0.3352559880166610
 -0.0000000000000000  0.7911465036879555  0.3407920167189277
  0.5000011279425181  0.4749576888825267  0.3458423555656646
 -0.0000000000000000  0.1577456003612859  0.3509041121878938
  0.5000011279425181  0.8431953919002865  0.3563544780767953
 -0.0000000000000000  0.5291882522325252  0.3616662101419729
  0.5000011279425181  0.2076366123593300  0.3661195590779205
 -0.0000000000000000  0.8955440259446324  0.3725923463393203
  0.5000011279425181  0.5868014984838450  0.3772545648974184
 -0.0000000000000000  0.2605359598797247  0.3813088566949601
  0.5000011279425181  0.9405947177630426  0.3885714218176006
  0.0000000000000000  0.6405106278351820  0.3946139728974392
  0.5000011279425181  0.3147970155278875  0.3954885692041280
 -0.0000000000000000  0.3147970155278875  0.4095983870475927
  0.5000011279425181  0.6405106278351820  0.4104729833542815
 -0.0000000000000000  0.9405947177630426  0.4165165695043682
  0.5000011279425181  0.2605359598797247  0.4237791346270087
 -0.0000000000000000  0.5868014984838450  0.4278323913543023
  0.5000011279425181  0.8955440259446324  0.4324956449826485
 -0.0000000000000000  0.2076366123593300  0.4389684322440483
  0.5000011279425181  0.5291882522325252  0.4434217811799960
 -0.0000000000000000  0.8431953919002865  0.4487324781749254
  0.5000011279425181  0.1577456003612859  0.4541838791340750
  0.0000000000000000  0.4749576888825267  0.4592456357563114
  0.5000011279425181  0.7911465036879555  0.4642959746030412
 -0.0000000000000000  0.1057124065026542  0.4698309682350597
  0.5000011279425181  0.4228443421762008  0.4748592400389522
  0.0000000000000000  0.7378009366010252  0.4801599146345757
  0.5000011279425181  0.0533388345607462  0.4853816156023905
  0.0000000000000000  0.3694573751780174  0.4906398762652076
  0.5000011279425181  0.6851100630743153  0.4957938538366755
 -0.0000000000000000  0.0005027644951269  0.5011018202209357
  0.5000011279425181  0.3167535880209466  0.5062853604944589
 -0.0000000000000000  0.6322243691543431  0.5115388836125482
  0.5000011279425181  0.9481142415302963  0.5167424826436779
  0.0000000000000000  0.2638261432712164  0.5220284123555229
  0.5000011279425181  0.5795894530246720  0.5271896585900973
 -0.0000000000000000  0.8951358240715144  0.5324653847992269
  0.5000011279425181  0.2110227547136173  0.5376652736729387
 -0.0000000000000000  0.5266166236685794  0.5429084125335985
  0.5000011279425181  0.8425143259841359  0.5481273938017717
 -0.0000000000000000  0.1580837807568983  0.5533754206673257
  0.5000011279425181  0.4739186422153564  0.5585745414993413
  0.0000000000000000  0.7896501859225603  0.5638397081229937
  0.5000011279425181  0.1053687777345352  0.5690255511332396
 -0.0000000000000000  0.4210592939466836  0.5742716880761761
  0.5000011279425181  0.7369204269545309  0.5794878489125679
  0.0000000000000000  0.0525894129449143  0.5847125542904417
  0.5000011279425181  0.3685068357484046  0.5899312108361081
 -0.0000000000000000  0.6842282433197621  0.5951768965390609
  0.5000011279425181 -0.0000070054746726  0.6003669280238179
 -0.0000000000000000  0.3157265810027509  0.6056219094884474
  0.5000011279425181  0.6314907649619813  0.6108199165396732
  0.0000000000000000  0.9471801053348045  0.6160466789288181
  0.5000011279425181  0.2630885364301591  0.6212663907064476
  0.0000000000000000  0.5788266758279240  0.6264878212132020
  0.5000011279425181  0.8945430911714490  0.6317016736021397
 -0.0000000000000000  0.2102526140462678  0.6369469719011911
  0.5000011279425181  0.5260619477864328  0.6421344019995552
  0.0000000000000000  0.8417546383064213  0.6473804043194520
  0.5000011279425181  0.1575432293371895  0.6525781709006181
  0.0000000000000000  0.4733130052741864  0.6578030090931096
  0.5000011279425181  0.7892160881088071  0.6630360619907112
 -0.0000000000000000  0.1047595863830279  0.6682635935612190
  0.5000011279425181  0.4204314520298867  0.6734523893675349
 -0.0000000000000000  0.7362304638932519  0.6787112945481710
  0.5000011279425181  0.0518622696581792  0.6838817523543262
  0.0000000000000000  0.3676364513199071  0.6891238907308583
  0.5000011279425181  0.6835340583695961  0.6943417827768659
 -0.0000000000000000  0.9990045076962701  0.6995461966257458
  0.5000011279425181  0.3145141465457644  0.7047613404008550
 -0.0000000000000000  0.6304351029323133  0.7100528028585122
  0.5000011279425181  0.9465633834878545  0.7152000342051121
  0.0000000000000000  0.2621285377527248  0.7204683423243342
  0.5000011279425181  0.5781766976980083  0.7255756012187889
 -0.0000000000000000  0.8939104338620961  0.7307627146671655
  0.5000011279425181  0.2096880158568342  0.7360275191598556
 -0.0000000000000000  0.5248217613092432  0.7412930112206019
  0.5000011279425181  0.8405692298468119  0.7465149880529677
 -0.0000000000000000  0.1588036223728037  0.7517164403579820
  0.5000011279425181  0.4735311577514164  0.7565320487771029
 -0.0000000000000000  0.7899646030425004  0.7618788120670611
  0.5000011279425181  0.1071918990574979  0.7671347319744793
  0.0000000000000000  0.4200055173998282  0.7729501411857254
  0.5000011279425181  0.7315187408837459  0.7779128772734585
 -0.0000000000000000  0.0530545252293448  0.7829461388409277
  0.5000011279425181  0.3512742975989123  0.7870821395423089
  0.0000000000000000  0.7187090594564065  0.7921411408720570
  0.5000011279425181  0.9791746248253165  0.7963361402260047
 
  0.00000000E+00  0.00000000E+00  0.00000000E+00
  0.00000000E+00  0.00000000E+00  0.00000000E+00
  0.00000000E+00  0.00000000E+00  0.00000000E+00
  0.00000000E+00  0.00000000E+00  0.00000000E+00
  0.00000000E+00  0.00000000E+00  0.00000000E+00
  0.00000000E+00  0.00000000E+00  0.00000000E+00
  0.00000000E+00  0.00000000E+00  0.00000000E+00
  0.00000000E+00  0.00000000E+00  0.00000000E+00
  0.00000000E+00  0.00000000E+00  0.00000000E+00
  0.00000000E+00  0.00000000E+00  0.00000000E+00
  0.00000000E+00  0.00000000E+00  0.00000000E+00
  0.00000000E+00  0.00000000E+00  0.00000000E+00
  0.00000000E+00  0.00000000E+00  0.00000000E+00
  0.00000000E+00  0.00000000E+00  0.00000000E+00
  0.00000000E+00  0.00000000E+00  0.00000000E+00
  0.00000000E+00  0.00000000E+00  0.00000000E+00
  0.00000000E+00  0.00000000E+00  0.00000000E+00
  0.00000000E+00  0.00000000E+00  0.00000000E+00
  0.00000000E+00  0.00000000E+00  0.00000000E+00
  0.00000000E+00  0.00000000E+00  0.00000000E+00
  0.00000000E+00  0.00000000E+00  0.00000000E+00
  0.00000000E+00  0.00000000E+00  0.00000000E+00
  0.00000000E+00  0.00000000E+00  0.00000000E+00
  0.00000000E+00  0.00000000E+00  0.00000000E+00
  0.00000000E+00  0.00000000E+00  0.00000000E+00
  0.00000000E+00  0.00000000E+00  0.00000000E+00
  0.00000000E+00  0.00000000E+00  0.00000000E+00
  0.00000000E+00  0.00000000E+00  0.00000000E+00
  0.00000000E+00  0.00000000E+00  0.00000000E+00
  0.00000000E+00  0.00000000E+00  0.00000000E+00
  0.00000000E+00  0.00000000E+00  0.00000000E+00
  0.00000000E+00  0.00000000E+00  0.00000000E+00
  0.00000000E+00  0.00000000E+00  0.00000000E+00
  0.00000000E+00  0.00000000E+00  0.00000000E+00
  0.00000000E+00  0.00000000E+00  0.00000000E+00
  0.00000000E+00  0.00000000E+00  0.00000000E+00
  0.00000000E+00  0.00000000E+00  0.00000000E+00
  0.00000000E+00  0.00000000E+00  0.00000000E+00
  0.00000000E+00  0.00000000E+00  0.00000000E+00
  0.00000000E+00  0.00000000E+00  0.00000000E+00
  0.00000000E+00  0.00000000E+00  0.00000000E+00
  0.00000000E+00  0.00000000E+00  0.00000000E+00
  0.00000000E+00  0.00000000E+00  0.00000000E+00
  0.00000000E+00  0.00000000E+00  0.00000000E+00
  0.00000000E+00  0.00000000E+00  0.00000000E+00
  0.00000000E+00  0.00000000E+00  0.00000000E+00
  0.00000000E+00  0.00000000E+00  0.00000000E+00
  0.00000000E+00  0.00000000E+00  0.00000000E+00
  0.00000000E+00  0.00000000E+00  0.00000000E+00
  0.00000000E+00  0.00000000E+00  0.00000000E+00
  0.00000000E+00  0.00000000E+00  0.00000000E+00
  0.00000000E+00  0.00000000E+00  0.00000000E+00
  0.00000000E+00  0.00000000E+00  0.00000000E+00
  0.00000000E+00  0.00000000E+00  0.00000000E+00
  0.00000000E+00  0.00000000E+00  0.00000000E+00
  0.00000000E+00  0.00000000E+00  0.00000000E+00
  0.00000000E+00  0.00000000E+00  0.00000000E+00
  0.00000000E+00  0.00000000E+00  0.00000000E+00
  0.00000000E+00  0.00000000E+00  0.00000000E+00
  0.00000000E+00  0.00000000E+00  0.00000000E+00
  0.00000000E+00  0.00000000E+00  0.00000000E+00
  0.00000000E+00  0.00000000E+00  0.00000000E+00
  0.00000000E+00  0.00000000E+00  0.00000000E+00
  0.00000000E+00  0.00000000E+00  0.00000000E+00
  0.00000000E+00  0.00000000E+00  0.00000000E+00
  0.00000000E+00  0.00000000E+00  0.00000000E+00
  0.00000000E+00  0.00000000E+00  0.00000000E+00
  0.00000000E+00  0.00000000E+00  0.00000000E+00
  0.00000000E+00  0.00000000E+00  0.00000000E+00
  0.00000000E+00  0.00000000E+00  0.00000000E+00
  0.00000000E+00  0.00000000E+00  0.00000000E+00
  0.00000000E+00  0.00000000E+00  0.00000000E+00
  0.00000000E+00  0.00000000E+00  0.00000000E+00
  0.00000000E+00  0.00000000E+00  0.00000000E+00
  0.00000000E+00  0.00000000E+00  0.00000000E+00
  0.00000000E+00  0.00000000E+00  0.00000000E+00
  0.00000000E+00  0.00000000E+00  0.00000000E+00
  0.00000000E+00  0.00000000E+00  0.00000000E+00
  0.00000000E+00  0.00000000E+00  0.00000000E+00
  0.00000000E+00  0.00000000E+00  0.00000000E+00
  0.00000000E+00  0.00000000E+00  0.00000000E+00
  0.00000000E+00  0.00000000E+00  0.00000000E+00
  0.00000000E+00  0.00000000E+00  0.00000000E+00
  0.00000000E+00  0.00000000E+00  0.00000000E+00
  0.00000000E+00  0.00000000E+00  0.00000000E+00
  0.00000000E+00  0.00000000E+00  0.00000000E+00
  0.00000000E+00  0.00000000E+00  0.00000000E+00
  0.00000000E+00  0.00000000E+00  0.00000000E+00
  0.00000000E+00  0.00000000E+00  0.00000000E+00
  0.00000000E+00  0.00000000E+00  0.00000000E+00
  0.00000000E+00  0.00000000E+00  0.00000000E+00
  0.00000000E+00  0.00000000E+00  0.00000000E+00
  0.00000000E+00  0.00000000E+00  0.00000000E+00
  0.00000000E+00  0.00000000E+00  0.00000000E+00
  0.00000000E+00  0.00000000E+00  0.00000000E+00
  0.00000000E+00  0.00000000E+00  0.00000000E+00
  0.00000000E+00  0.00000000E+00  0.00000000E+00
  0.00000000E+00  0.00000000E+00  0.00000000E+00
  0.00000000E+00  0.00000000E+00  0.00000000E+00
  0.00000000E+00  0.00000000E+00  0.00000000E+00
  0.00000000E+00  0.00000000E+00  0.00000000E+00
  0.00000000E+00  0.00000000E+00  0.00000000E+00
  0.00000000E+00  0.00000000E+00  0.00000000E+00
  0.00000000E+00  0.00000000E+00  0.00000000E+00
  0.00000000E+00  0.00000000E+00  0.00000000E+00
  0.00000000E+00  0.00000000E+00  0.00000000E+00
  0.00000000E+00  0.00000000E+00  0.00000000E+00
  0.00000000E+00  0.00000000E+00  0.00000000E+00
  0.00000000E+00  0.00000000E+00  0.00000000E+00
  0.00000000E+00  0.00000000E+00  0.00000000E+00
  0.00000000E+00  0.00000000E+00  0.00000000E+00
  0.00000000E+00  0.00000000E+00  0.00000000E+00
  0.00000000E+00  0.00000000E+00  0.00000000E+00
  0.00000000E+00  0.00000000E+00  0.00000000E+00
  0.00000000E+00  0.00000000E+00  0.00000000E+00
  0.00000000E+00  0.00000000E+00  0.00000000E+00
  0.00000000E+00  0.00000000E+00  0.00000000E+00
  0.00000000E+00  0.00000000E+00  0.00000000E+00
  0.00000000E+00  0.00000000E+00  0.00000000E+00
  0.00000000E+00  0.00000000E+00  0.00000000E+00
  0.00000000E+00  0.00000000E+00  0.00000000E+00
  0.00000000E+00  0.00000000E+00  0.00000000E+00
  0.00000000E+00  0.00000000E+00  0.00000000E+00
  0.00000000E+00  0.00000000E+00  0.00000000E+00
  0.00000000E+00  0.00000000E+00  0.00000000E+00
  0.00000000E+00  0.00000000E+00  0.00000000E+00
  0.00000000E+00  0.00000000E+00  0.00000000E+00
  0.00000000E+00  0.00000000E+00  0.00000000E+00
  0.00000000E+00  0.00000000E+00  0.00000000E+00
  0.00000000E+00  0.00000000E+00  0.00000000E+00
  0.00000000E+00  0.00000000E+00  0.00000000E+00
  0.00000000E+00  0.00000000E+00  0.00000000E+00
  0.00000000E+00  0.00000000E+00  0.00000000E+00
  0.00000000E+00  0.00000000E+00  0.00000000E+00
  0.00000000E+00  0.00000000E+00  0.00000000E+00
  0.00000000E+00  0.00000000E+00  0.00000000E+00
  0.00000000E+00  0.00000000E+00  0.00000000E+00
  0.00000000E+00  0.00000000E+00  0.00000000E+00
  0.00000000E+00  0.00000000E+00  0.00000000E+00
  0.00000000E+00  0.00000000E+00  0.00000000E+00
  0.00000000E+00  0.00000000E+00  0.00000000E+00
  0.00000000E+00  0.00000000E+00  0.00000000E+00
  0.00000000E+00  0.00000000E+00  0.00000000E+00
  0.00000000E+00  0.00000000E+00  0.00000000E+00
  0.00000000E+00  0.00000000E+00  0.00000000E+00
  0.00000000E+00  0.00000000E+00  0.00000000E+00
  0.00000000E+00  0.00000000E+00  0.00000000E+00
  0.00000000E+00  0.00000000E+00  0.00000000E+00
  0.00000000E+00  0.00000000E+00  0.00000000E+00
  0.00000000E+00  0.00000000E+00  0.00000000E+00
  0.00000000E+00  0.00000000E+00  0.00000000E+00
  0.00000000E+00  0.00000000E+00  0.00000000E+00
