 W                                      
   1.00000000000000     
     2.7630497480063796    0.0000000000000000    0.0000000000000000
     0.0000000000000000   11.9376989473684194    0.0000000000000000
     0.0000000000000000    0.0000000000000000   82.7069539074960147
   W 
   126
Direct
  0.9691025351829652  0.4906149304652588  0.0080862880555383
  0.3102602923246535  0.2824256430787258  0.0129878740420941
  0.6641327982799939  0.0733554540294514  0.0184901549615455
  0.9956483372944795  0.8591388313425454  0.0243608028861190
  0.3326470080198757  0.6449256620940023  0.0286549272533569
  0.6656619937939634  0.4283761926970330  0.0353264258353644
  0.9938809271180251  0.2137663361626264  0.0412313159534717
  0.3328119994550749  0.9995465442701315  0.0469191287163751
  0.6754499149928265  0.7859080849418253  0.0525648165686180
  0.0070733254486632  0.5730066893715221  0.0584777600195978
  0.3299523599549544  0.3574836382645324  0.0649755186988776
  0.6631382635420435  0.1423948677326834  0.0707429161419396
  0.9984785751588140  0.9279119452606504  0.0764176758497049
  0.3335998331983902  0.7139975289104159  0.0822420131257872
  0.6634895583342817  0.5004713578930922  0.0882146074672992
  1.0001717023358088  0.2859677783514702  0.0941727229765796
  0.3342503253849163  0.0717976936520561  0.1000606536637507
  0.6674223508022444  0.8575147314976637  0.1058497587481606
  0.0009464974907639  0.6435681644258529  0.1117587251665921
  0.3339407036022949  0.4291470774262248  0.1176639354459963
  0.6656409258959830  0.2144817400495655  0.1236516031535149
  0.9992743956722445  0.9998539918348922  0.1295384346903366
  0.3321489352676097  0.7856529653489427  0.1353870685013135
  0.6663466896855271  0.5714956606893602  0.1412776578668324
 -0.0004997389762749  0.3573964742884166  0.1472085743305180
  0.3337783864242835  0.1430132004186710  0.1530925713255360
  0.6674970650743488  0.9287700426482115  0.1589952813912028
  0.0005054458922599  0.7145111447961454  0.1648736777894660
  0.3337714945196912  0.5002970351398128  0.1707860045362413
  0.6677186808046853  0.2859227148311859  0.1766813579367854
  0.0006563061104841  0.0716100547599888  0.1826017918535519
  0.3341154107391042  0.8572784872142629  0.1885138823950217
  0.6672174116860979  0.6430169172799309  0.1944218834810454
  0.0008068143584110  0.4286634376311975  0.2003100956099191
  0.3338177746038255  0.2143712131225460  0.2062394582670548
  0.6674977059989858  0.0000641004381602  0.2121351348498615
  0.0009134959001741  0.7858652740079126  0.2180375289473407
  0.3346617399114886  0.5715795171494720  0.2239396083432487
  0.6678823149993850  0.3573711767283075  0.2298420527892238
  0.0016110134926650  0.1430090320710045  0.2357447994857564
  0.3345086523584280  0.9287083874441081  0.2416565662137130
  0.6677145025705901  0.7143616994936210  0.2475578899651784
  0.0012092671687870  0.5000810144952694  0.2534703890216516
  0.3347003834517167  0.2858015273610428  0.2593560107175070
  0.6680901930662392  0.0715028996896963  0.2652654788491958
  0.0010625920894948  0.8570505006821130  0.2712083922872088
  0.3342226416991458  0.6429752461345154  0.2771361137910315
  0.6682029381398206  0.4288400064497975  0.2830051615752558
  0.0013280435401987  0.2144494340895800  0.2888928055917442
  0.3342172236982612 -0.0001226432446582  0.2947992841290851
  0.6668915083260931  0.7857479350365461  0.3007926281312160
  0.0016624767193299  0.5718216154787584  0.3067296766772672
  0.3360264085674896  0.3574954446512750  0.3125268059022170
  0.6663967522383437  0.1426978612523334  0.3184069076341932
  0.9976143371161132  0.9286513209870201  0.3243010307324573
  0.3338117356909192  0.7140754420100182  0.3303628530912598
  0.6678526739373428  0.5002838906916260  0.3361781551416365
  0.0013568663279208  0.2855033618381084  0.3418382060975368
  0.3364463197782079  0.0715558945617452  0.3479169613286277
  0.6670727568434444  0.8582043666010835  0.3536175795838594
  0.0025168738136728  0.6429544076074598  0.3603762790654067
  0.3385180590058631  0.4268954757332797  0.3653116476264943
  0.6653190044945846  0.2146842101023879  0.3711429143137412
  0.0116874112494997  1.0000034508621185  0.3780614070367935
  0.6676254133235722  0.7853128838024955  0.3849760229031254
  0.3405256756015090  0.5731006620846527  0.3908070518183336
  0.0032960126612948  0.3569826916394415  0.3957320471349926
  0.6694517040363497  0.1417210312938958  0.4025021128710318
  0.3382286484446550  0.9283938765218159  0.4082087411669416
  0.0030689537510976  0.7144574584334514  0.4142779459131061
  0.6692061364219735  0.4996687038011126  0.4199351941996778
  0.3354060468101853  0.2858993710362908  0.4257549626732754
  0.9992436383846213  0.0713106372553692  0.4318234496219944
  0.6677948708777858  0.8572710574479797  0.4377072312143289
  0.3374048357662296  0.6424795866446853  0.4435915237917656
  0.0030565349068982  0.4281400842756808  0.4493938740941270
  0.6681529502183922  0.2142273971189799  0.4553203040033408
  0.3353132855175342  1.0000826099006124  0.4613146849099492
  0.0027153668653841  0.7855156038107672  0.4672251067917973
  0.6692020645344106  0.5711341501137661  0.4731130706241431
  0.3351611698273284  0.3570409044629888  0.4789765587814298
  0.0020505148789590  0.1429459372157092  0.4849121485917619
  0.6690426147914945  0.9285130597406860  0.4908609742758814
  0.3354689684741043  0.7141683595698903  0.4967581106831198
  0.0020990439773667  0.4998660661873564  0.5026486398301712
  0.6687354051586119  0.2855514518779129  0.5085592228043759
  0.3355704385852898  0.0712522708606726  0.5144591743467920
  0.0020386606625705  0.8569451730730554  0.5203648940973387
  0.6685844819997289  0.6426975714406550  0.5262760658027060
  0.3349913426150810  0.4284348445096722  0.5321704072364807
  0.0012068452256025  0.2142099348091526  0.5380749306155932
  0.6679479626376772  0.9998967370170722  0.5439667025919900
  0.3347301021796238  0.7856038995765408  0.5498891954322910
  0.0010855278784920  0.5712741831242499  0.5557961771937943
  0.6677855628426607  0.3569778193366238  0.5616909506058240
  0.3343931013639410  0.1427070434375314  0.5676088986316153
  0.0013281780163635  0.9283674826167078  0.5735278621952874
  0.6675571031826811  0.7140064934562346  0.5794218765758832
  0.3342011296436386  0.4997592511948361  0.5853362020235423
  0.0012699832352931  0.2855014617855573  0.5912170607548045
  0.6673299433313744  0.0712620414772315  0.5971165609866363
  0.3331087340003520  0.8568999177651511  0.6030022421789862
 -0.0000817658200098  0.6428084174037653  0.6089330272655433
  0.6657038659029493  0.4286621928869085  0.6148258122367128
  0.3327870191404855  0.2144312784976932  0.6206675718236976
  0.9992794805333075  0.9998198916333977  0.6265552256853122
  0.6674503240491967  0.7851486774425452  0.6325455176281064
  0.3344841209431024  0.5707363290131179  0.6384489320837649
  0.0008924628481763  0.3568010173080782  0.6443592787082717
  0.6676747491439886  0.1425387774524460  0.6501525668309224
  0.3336294325721306  0.9283557704947065  0.6560344223443286
  0.9969292937393828  0.7138477263922098  0.6619951208970993
  0.6671781052844483  0.5002991797627777  0.6679675549569297
  0.3320255639249602  0.2863992504286576  0.6737937497054296
  0.9965033249824446  0.0719105997134817  0.6794668904161033
  0.6634164191273756  0.8568354111983669  0.6852319432067563
  0.3404429134600173  0.6413236863919576  0.6917340546545260
  0.0089069304866911  0.4284257950026238  0.6976452194594731
  0.6661428633923466  0.2147793316556859  0.7032873151647588
  0.3272275338065798  0.0005699993369178  0.7089768632585772
 -0.0008382147493440  0.7859341036604630  0.7148824893076439
  0.6661085964080270  0.5694045293938801  0.7215581931282499
  0.3290408667446511  0.3551564197362884  0.7258482122292399
  0.9976958133778917  0.1409488452415425  0.7317226531857246
  0.6435601778305213  0.9319069017398058  0.7372227128156557
  0.3025528790798960  0.7237424920581219  0.7421221239315660
 
  0.00000000E+00  0.00000000E+00  0.00000000E+00
  0.00000000E+00  0.00000000E+00  0.00000000E+00
  0.00000000E+00  0.00000000E+00  0.00000000E+00
  0.00000000E+00  0.00000000E+00  0.00000000E+00
  0.00000000E+00  0.00000000E+00  0.00000000E+00
  0.00000000E+00  0.00000000E+00  0.00000000E+00
  0.00000000E+00  0.00000000E+00  0.00000000E+00
  0.00000000E+00  0.00000000E+00  0.00000000E+00
  0.00000000E+00  0.00000000E+00  0.00000000E+00
  0.00000000E+00  0.00000000E+00  0.00000000E+00
  0.00000000E+00  0.00000000E+00  0.00000000E+00
  0.00000000E+00  0.00000000E+00  0.00000000E+00
  0.00000000E+00  0.00000000E+00  0.00000000E+00
  0.00000000E+00  0.00000000E+00  0.00000000E+00
  0.00000000E+00  0.00000000E+00  0.00000000E+00
  0.00000000E+00  0.00000000E+00  0.00000000E+00
  0.00000000E+00  0.00000000E+00  0.00000000E+00
  0.00000000E+00  0.00000000E+00  0.00000000E+00
  0.00000000E+00  0.00000000E+00  0.00000000E+00
  0.00000000E+00  0.00000000E+00  0.00000000E+00
  0.00000000E+00  0.00000000E+00  0.00000000E+00
  0.00000000E+00  0.00000000E+00  0.00000000E+00
  0.00000000E+00  0.00000000E+00  0.00000000E+00
  0.00000000E+00  0.00000000E+00  0.00000000E+00
  0.00000000E+00  0.00000000E+00  0.00000000E+00
  0.00000000E+00  0.00000000E+00  0.00000000E+00
  0.00000000E+00  0.00000000E+00  0.00000000E+00
  0.00000000E+00  0.00000000E+00  0.00000000E+00
  0.00000000E+00  0.00000000E+00  0.00000000E+00
  0.00000000E+00  0.00000000E+00  0.00000000E+00
  0.00000000E+00  0.00000000E+00  0.00000000E+00
  0.00000000E+00  0.00000000E+00  0.00000000E+00
  0.00000000E+00  0.00000000E+00  0.00000000E+00
  0.00000000E+00  0.00000000E+00  0.00000000E+00
  0.00000000E+00  0.00000000E+00  0.00000000E+00
  0.00000000E+00  0.00000000E+00  0.00000000E+00
  0.00000000E+00  0.00000000E+00  0.00000000E+00
  0.00000000E+00  0.00000000E+00  0.00000000E+00
  0.00000000E+00  0.00000000E+00  0.00000000E+00
  0.00000000E+00  0.00000000E+00  0.00000000E+00
  0.00000000E+00  0.00000000E+00  0.00000000E+00
  0.00000000E+00  0.00000000E+00  0.00000000E+00
  0.00000000E+00  0.00000000E+00  0.00000000E+00
  0.00000000E+00  0.00000000E+00  0.00000000E+00
  0.00000000E+00  0.00000000E+00  0.00000000E+00
  0.00000000E+00  0.00000000E+00  0.00000000E+00
  0.00000000E+00  0.00000000E+00  0.00000000E+00
  0.00000000E+00  0.00000000E+00  0.00000000E+00
  0.00000000E+00  0.00000000E+00  0.00000000E+00
  0.00000000E+00  0.00000000E+00  0.00000000E+00
  0.00000000E+00  0.00000000E+00  0.00000000E+00
  0.00000000E+00  0.00000000E+00  0.00000000E+00
  0.00000000E+00  0.00000000E+00  0.00000000E+00
  0.00000000E+00  0.00000000E+00  0.00000000E+00
  0.00000000E+00  0.00000000E+00  0.00000000E+00
  0.00000000E+00  0.00000000E+00  0.00000000E+00
  0.00000000E+00  0.00000000E+00  0.00000000E+00
  0.00000000E+00  0.00000000E+00  0.00000000E+00
  0.00000000E+00  0.00000000E+00  0.00000000E+00
  0.00000000E+00  0.00000000E+00  0.00000000E+00
  0.00000000E+00  0.00000000E+00  0.00000000E+00
  0.00000000E+00  0.00000000E+00  0.00000000E+00
  0.00000000E+00  0.00000000E+00  0.00000000E+00
  0.00000000E+00  0.00000000E+00  0.00000000E+00
  0.00000000E+00  0.00000000E+00  0.00000000E+00
  0.00000000E+00  0.00000000E+00  0.00000000E+00
  0.00000000E+00  0.00000000E+00  0.00000000E+00
  0.00000000E+00  0.00000000E+00  0.00000000E+00
  0.00000000E+00  0.00000000E+00  0.00000000E+00
  0.00000000E+00  0.00000000E+00  0.00000000E+00
  0.00000000E+00  0.00000000E+00  0.00000000E+00
  0.00000000E+00  0.00000000E+00  0.00000000E+00
  0.00000000E+00  0.00000000E+00  0.00000000E+00
  0.00000000E+00  0.00000000E+00  0.00000000E+00
  0.00000000E+00  0.00000000E+00  0.00000000E+00
  0.00000000E+00  0.00000000E+00  0.00000000E+00
  0.00000000E+00  0.00000000E+00  0.00000000E+00
  0.00000000E+00  0.00000000E+00  0.00000000E+00
  0.00000000E+00  0.00000000E+00  0.00000000E+00
  0.00000000E+00  0.00000000E+00  0.00000000E+00
  0.00000000E+00  0.00000000E+00  0.00000000E+00
  0.00000000E+00  0.00000000E+00  0.00000000E+00
  0.00000000E+00  0.00000000E+00  0.00000000E+00
  0.00000000E+00  0.00000000E+00  0.00000000E+00
  0.00000000E+00  0.00000000E+00  0.00000000E+00
  0.00000000E+00  0.00000000E+00  0.00000000E+00
  0.00000000E+00  0.00000000E+00  0.00000000E+00
  0.00000000E+00  0.00000000E+00  0.00000000E+00
  0.00000000E+00  0.00000000E+00  0.00000000E+00
  0.00000000E+00  0.00000000E+00  0.00000000E+00
  0.00000000E+00  0.00000000E+00  0.00000000E+00
  0.00000000E+00  0.00000000E+00  0.00000000E+00
  0.00000000E+00  0.00000000E+00  0.00000000E+00
  0.00000000E+00  0.00000000E+00  0.00000000E+00
  0.00000000E+00  0.00000000E+00  0.00000000E+00
  0.00000000E+00  0.00000000E+00  0.00000000E+00
  0.00000000E+00  0.00000000E+00  0.00000000E+00
  0.00000000E+00  0.00000000E+00  0.00000000E+00
  0.00000000E+00  0.00000000E+00  0.00000000E+00
  0.00000000E+00  0.00000000E+00  0.00000000E+00
  0.00000000E+00  0.00000000E+00  0.00000000E+00
  0.00000000E+00  0.00000000E+00  0.00000000E+00
  0.00000000E+00  0.00000000E+00  0.00000000E+00
  0.00000000E+00  0.00000000E+00  0.00000000E+00
  0.00000000E+00  0.00000000E+00  0.00000000E+00
  0.00000000E+00  0.00000000E+00  0.00000000E+00
  0.00000000E+00  0.00000000E+00  0.00000000E+00
  0.00000000E+00  0.00000000E+00  0.00000000E+00
  0.00000000E+00  0.00000000E+00  0.00000000E+00
  0.00000000E+00  0.00000000E+00  0.00000000E+00
  0.00000000E+00  0.00000000E+00  0.00000000E+00
  0.00000000E+00  0.00000000E+00  0.00000000E+00
  0.00000000E+00  0.00000000E+00  0.00000000E+00
  0.00000000E+00  0.00000000E+00  0.00000000E+00
  0.00000000E+00  0.00000000E+00  0.00000000E+00
  0.00000000E+00  0.00000000E+00  0.00000000E+00
  0.00000000E+00  0.00000000E+00  0.00000000E+00
  0.00000000E+00  0.00000000E+00  0.00000000E+00
  0.00000000E+00  0.00000000E+00  0.00000000E+00
  0.00000000E+00  0.00000000E+00  0.00000000E+00
  0.00000000E+00  0.00000000E+00  0.00000000E+00
  0.00000000E+00  0.00000000E+00  0.00000000E+00
  0.00000000E+00  0.00000000E+00  0.00000000E+00
  0.00000000E+00  0.00000000E+00  0.00000000E+00
  0.00000000E+00  0.00000000E+00  0.00000000E+00
  0.00000000E+00  0.00000000E+00  0.00000000E+00
