 W                                      
   1.00000000000000     
     4.5120332854864431    0.0000000000000000    0.0000000000000000
     2.2560217320574161    6.5773685933014354    0.0000000000000000
     0.0000000000000000    0.0000000000000000   93.0180062519936115
   W 
   136
Direct
  0.0070263482796835  0.9859473320671130  0.0105515603854527
  0.2119466983150466  0.5761075561358582  0.0152868371125248
  0.4188831900849560  0.1622354928744144  0.0200134264496142
  0.6234849094111264  0.7530284751130605  0.0248956363220898
  0.8263081678802553  0.3473828657667563  0.0294132280248174
  0.0322806561005345  0.9354388270178782  0.0366635431090362
  0.2382398853286078  0.5235212974489859  0.0422431373183762
  0.4444834456970441  0.1110351126177661  0.0480206008221316
  0.6506721394363988  0.6986541395283292  0.0539207295726673
  0.8558210920581232  0.2883571569790719  0.0597426360994424
  0.0623083261826328  0.8753836253464687  0.0659062311283338
  0.2687455590967731  0.4625100916172088  0.0716040667409167
  0.4743999937861796  0.0512021473043711  0.0773902711347554
  0.6807563334964586  0.6384858865880283  0.0831998429096029
  0.8858979994746472  0.2282034813300473  0.0890305423125795
  0.0919946076954471  0.8160111940410244  0.0947494127809804
  0.2977930293683601  0.4044152787446162  0.1005459393984035
  0.5036720560455505  0.9926536431009118  0.1063556918533737
  0.7093519961012980  0.5812946910143997  0.1122487397934004
  0.9155259566705262  0.1689477007286701  0.1180517806779637
  0.1214431254769392  0.7571142928514356  0.1239214619320415
  0.3275052777616176  0.3449909172112243  0.1297435856820099
  0.5332055588674109  0.9335867722041112  0.1356088518009682
  0.7392296191788532  0.5215395818928263  0.1414177300714686
  0.9450923227459306  0.1098151033320993  0.1472448511983887
  0.1510137829046259  0.6979731119470167  0.1530595470636537
  0.3568357833401632  0.2863300396699692  0.1589046312088548
  0.5627472157109915  0.8745035929985375  0.1647095374082702
  0.7685862152582975  0.4628265223827508  0.1705356876886341
  0.9745583190638553  0.0508832439863640  0.1763609698061596
  0.1804588867731313  0.6390830379794395  0.1822009689142826
  0.3863858903177609  0.2272299604163034  0.1880234924805400
  0.5922651260971618  0.8154679061387700  0.1938833781195406
  0.7983115168597105  0.4033760540629997  0.1997108389921550
  0.0041759084244079  0.9916482003968882  0.2055525875191512
  0.2101301066554926  0.5797407332863045  0.2113892194787057
  0.4159857348699256  0.1680304055073064  0.2172373145075497
  0.6220026866900474  0.7559929197418187  0.2230522851272396
  0.8278601664278803  0.3442788887868577  0.2288978487030894
  0.0337916034555821  0.9324169442296532  0.2347214544063595
  0.2396782313269220  0.5206446165573230  0.2405632248263401
  0.4456752180123209  0.1086515733242906  0.2463847788389502
  0.6515157584925152  0.6969669088485140  0.2522334796276970
  0.8575084564898224  0.2849824428373582  0.2580609715874004
  0.0633426884153831  0.8733149078001913  0.2639069538750154
  0.2693290014223862  0.4613432116544340  0.2697391207354505
  0.4752314003458308  0.0495393421118122  0.2755980613868244
  0.6812149309171108  0.6375686990534618  0.2814251050099890
  0.8870447386991710  0.2259100119646778  0.2872735891169270
  0.0929411693324925  0.8141180804859803  0.2931271538907579
  0.2988303323702549  0.4023406816220206  0.2989545456235831
  0.5048917311371985  0.9902143046055891  0.3047627314058923
  0.7105474739337666  0.5789037454804417  0.3106194100240551
  0.9167433105650351  0.1665130019674454  0.3164657900564597
  0.1222081692712935  0.7555842129464934  0.3223334948906204
  0.3286252303542966  0.3427510233333445  0.3280083993790018
  0.5345402324566654  0.9309174351251561  0.3341211885625484
  0.7398271372586864  0.5203445523242534  0.3398372313352387
  0.9472882568756192  0.1054232482573101  0.3458029430660012
  0.1525122202130631  0.6949762490704828  0.3515993250347424
  0.3570831164604786  0.2858353764455916  0.3568158343049130
  0.5653005114073925  0.8693970202932436  0.3636847073125592
  0.7697451523108958  0.4605086573367896  0.3687916241458623
  0.9805565061540156  0.0388869027666360  0.3750715054161852
  0.1795426920029053  0.6409154280749748  0.3815014698103890
  0.3846601554401379  0.2306814319799099  0.3841906329057626
  0.6067181519995480  0.7865619070555930  0.3947484725533104
  0.8088206785285413  0.3823577873883143  0.3972484049594618
  0.4347983426140704  0.1304052683026580  0.4097789213333761
  0.2297003077669666  0.5406004000112613  0.4114386467638099
  0.0310615442552383  0.9378770430037577  0.4176034746906232
  0.8274417260804368  0.3451157610823063  0.4255761913148426
  0.6230105259263276  0.7539772414298392  0.4290073209083016
  0.4136236591683395  0.1727545475335673  0.4368228591237315
  0.2070173191575176  0.5859662969119506  0.4415636325792859
  0.0050610842581729  0.9898778544825800  0.4474738074453608
  0.7963345937536350  0.4073298929719067  0.4537537358298148
  0.5920036612519700  0.8159908384578892  0.4590990975246894
  0.3856842633446212  0.2286332120375526  0.4653877276663816
  0.1793847007894064  0.6412314056249840  0.4709909066854440
  0.9741935283189935  0.0516128255336843  0.4768921760152205
  0.7676927839515075  0.4646133813063059  0.4827643540685955
  0.5622115540262983  0.8755749158547557  0.4885434616602201
  0.3562568861897618  0.2874878321659004  0.4944322893878058
  0.1504101627366324  0.6991803522620649  0.5002309858259234
  0.9446511013702265  0.1106975464183078  0.5060822423616094
  0.7387347040864701  0.5225294123743354  0.5119534162439262
  0.5328739917792379  0.9342499077594131  0.5177680375371966
  0.3270198785750003  0.3459617187019524  0.5236333051891312
  0.1211888125895662  0.7576229213875849  0.5294594952384606
  0.9154502070201137  0.1690992033878546  0.5352972740524908
  0.7095780764602851  0.5808425359169805  0.5411351085702540
  0.5037443143470802  0.9925091328794614  0.5469742675254521
  0.2979732898626408  0.4040547636628959  0.5528028979908906
  0.0921315828203061  0.8157372504557019  0.5586471221767259
  0.8862585312341517  0.2274824252224891  0.5644816615343538
  0.6804840955867565  0.6390303683945571  0.5703119011115440
  0.4746276372241928  0.0507468684350387  0.5761395677108335
  0.2688048969998310  0.4623914215398794  0.5819958732533270
  0.0629008319314347  0.8741986229534687  0.5878196133187594
  0.8571915230584428  0.2856163123079243  0.5936546867356036
  0.6512456820883047  0.6975070662022568  0.5994909179816111
  0.4454847524455072  0.1090325089885947  0.6053369717140709
  0.2395998215957929  0.5208014416750675  0.6111562343580279
  0.0337964809413306  0.9324071948123905  0.6170092576782165
  0.8278756958686714  0.3442478369292378  0.6228387739173417
  0.6220959148725709  0.7558064700830367  0.6286753146024123
  0.4162394886382614  0.1675229059371763  0.6345017254957455
  0.2104179906979738  0.5791649743932356  0.6403353831185495
  0.0045678604579457  0.9908643058708169  0.6461405420314142
  0.7988334960838458  0.4023321062414421  0.6519837246612313
  0.5929658873968049  0.8140663957406513  0.6578018912333553
  0.3871748717237934  0.2256520108596911  0.6636286598527965
  0.1812237570865155  0.6375533103497830  0.6694327548768870
  0.9755885289642596  0.0488228380194664  0.6752955320294668
  0.7695888032520150  0.4608213616860515  0.6811177304197121
  0.5637317035850745  0.8725346316613662  0.6869859459356874
  0.3576054846627078  0.2847906509017298  0.6927852982832011
  0.1519700878437775  0.6960605172058389  0.6986823087400241
  0.9461290853743116  0.1077415933922665  0.7044962772160219
  0.7403804328011493  0.5192379706162270  0.7102904945105252
  0.5343110828033252  0.9313757418537767  0.7160117692575714
  0.3292190988364142  0.3415632954073773  0.7218468610379567
  0.1229092659413656  0.7541820310743804  0.7276503132924260
  0.9172990233886008  0.1654015910734339  0.7334373892186796
  0.7108866768654865  0.5782253524570088  0.7391345819300065
  0.5044577124805448  0.9910823449630873  0.7452961654581217
  0.2993333106760746  0.4013347377770938  0.7511164405693564
  0.0931742538297819  0.8136519253682438  0.7570146713726201
  0.8869425734972781  0.2261143504990760  0.7627955277452789
  0.6810088398498023  0.6379808889032582  0.7683758120179062
  0.4750368435076287  0.0499284557002371  0.7756194281508558
  0.2722334407897801  0.4555343536110070  0.7801480649880822
  0.0676057407831803  0.8647888212528849  0.7850264408120782
  0.8607125417763748  0.2785742988868764  0.7897558199678326
  0.6557664643812056  0.6884655295168095  0.7944871060532185
 
  0.00000000E+00  0.00000000E+00  0.00000000E+00
  0.00000000E+00  0.00000000E+00  0.00000000E+00
  0.00000000E+00  0.00000000E+00  0.00000000E+00
  0.00000000E+00  0.00000000E+00  0.00000000E+00
  0.00000000E+00  0.00000000E+00  0.00000000E+00
  0.00000000E+00  0.00000000E+00  0.00000000E+00
  0.00000000E+00  0.00000000E+00  0.00000000E+00
  0.00000000E+00  0.00000000E+00  0.00000000E+00
  0.00000000E+00  0.00000000E+00  0.00000000E+00
  0.00000000E+00  0.00000000E+00  0.00000000E+00
  0.00000000E+00  0.00000000E+00  0.00000000E+00
  0.00000000E+00  0.00000000E+00  0.00000000E+00
  0.00000000E+00  0.00000000E+00  0.00000000E+00
  0.00000000E+00  0.00000000E+00  0.00000000E+00
  0.00000000E+00  0.00000000E+00  0.00000000E+00
  0.00000000E+00  0.00000000E+00  0.00000000E+00
  0.00000000E+00  0.00000000E+00  0.00000000E+00
  0.00000000E+00  0.00000000E+00  0.00000000E+00
  0.00000000E+00  0.00000000E+00  0.00000000E+00
  0.00000000E+00  0.00000000E+00  0.00000000E+00
  0.00000000E+00  0.00000000E+00  0.00000000E+00
  0.00000000E+00  0.00000000E+00  0.00000000E+00
  0.00000000E+00  0.00000000E+00  0.00000000E+00
  0.00000000E+00  0.00000000E+00  0.00000000E+00
  0.00000000E+00  0.00000000E+00  0.00000000E+00
  0.00000000E+00  0.00000000E+00  0.00000000E+00
  0.00000000E+00  0.00000000E+00  0.00000000E+00
  0.00000000E+00  0.00000000E+00  0.00000000E+00
  0.00000000E+00  0.00000000E+00  0.00000000E+00
  0.00000000E+00  0.00000000E+00  0.00000000E+00
  0.00000000E+00  0.00000000E+00  0.00000000E+00
  0.00000000E+00  0.00000000E+00  0.00000000E+00
  0.00000000E+00  0.00000000E+00  0.00000000E+00
  0.00000000E+00  0.00000000E+00  0.00000000E+00
  0.00000000E+00  0.00000000E+00  0.00000000E+00
  0.00000000E+00  0.00000000E+00  0.00000000E+00
  0.00000000E+00  0.00000000E+00  0.00000000E+00
  0.00000000E+00  0.00000000E+00  0.00000000E+00
  0.00000000E+00  0.00000000E+00  0.00000000E+00
  0.00000000E+00  0.00000000E+00  0.00000000E+00
  0.00000000E+00  0.00000000E+00  0.00000000E+00
  0.00000000E+00  0.00000000E+00  0.00000000E+00
  0.00000000E+00  0.00000000E+00  0.00000000E+00
  0.00000000E+00  0.00000000E+00  0.00000000E+00
  0.00000000E+00  0.00000000E+00  0.00000000E+00
  0.00000000E+00  0.00000000E+00  0.00000000E+00
  0.00000000E+00  0.00000000E+00  0.00000000E+00
  0.00000000E+00  0.00000000E+00  0.00000000E+00
  0.00000000E+00  0.00000000E+00  0.00000000E+00
  0.00000000E+00  0.00000000E+00  0.00000000E+00
  0.00000000E+00  0.00000000E+00  0.00000000E+00
  0.00000000E+00  0.00000000E+00  0.00000000E+00
  0.00000000E+00  0.00000000E+00  0.00000000E+00
  0.00000000E+00  0.00000000E+00  0.00000000E+00
  0.00000000E+00  0.00000000E+00  0.00000000E+00
  0.00000000E+00  0.00000000E+00  0.00000000E+00
  0.00000000E+00  0.00000000E+00  0.00000000E+00
  0.00000000E+00  0.00000000E+00  0.00000000E+00
  0.00000000E+00  0.00000000E+00  0.00000000E+00
  0.00000000E+00  0.00000000E+00  0.00000000E+00
  0.00000000E+00  0.00000000E+00  0.00000000E+00
  0.00000000E+00  0.00000000E+00  0.00000000E+00
  0.00000000E+00  0.00000000E+00  0.00000000E+00
  0.00000000E+00  0.00000000E+00  0.00000000E+00
  0.00000000E+00  0.00000000E+00  0.00000000E+00
  0.00000000E+00  0.00000000E+00  0.00000000E+00
  0.00000000E+00  0.00000000E+00  0.00000000E+00
  0.00000000E+00  0.00000000E+00  0.00000000E+00
  0.00000000E+00  0.00000000E+00  0.00000000E+00
  0.00000000E+00  0.00000000E+00  0.00000000E+00
  0.00000000E+00  0.00000000E+00  0.00000000E+00
  0.00000000E+00  0.00000000E+00  0.00000000E+00
  0.00000000E+00  0.00000000E+00  0.00000000E+00
  0.00000000E+00  0.00000000E+00  0.00000000E+00
  0.00000000E+00  0.00000000E+00  0.00000000E+00
  0.00000000E+00  0.00000000E+00  0.00000000E+00
  0.00000000E+00  0.00000000E+00  0.00000000E+00
  0.00000000E+00  0.00000000E+00  0.00000000E+00
  0.00000000E+00  0.00000000E+00  0.00000000E+00
  0.00000000E+00  0.00000000E+00  0.00000000E+00
  0.00000000E+00  0.00000000E+00  0.00000000E+00
  0.00000000E+00  0.00000000E+00  0.00000000E+00
  0.00000000E+00  0.00000000E+00  0.00000000E+00
  0.00000000E+00  0.00000000E+00  0.00000000E+00
  0.00000000E+00  0.00000000E+00  0.00000000E+00
  0.00000000E+00  0.00000000E+00  0.00000000E+00
  0.00000000E+00  0.00000000E+00  0.00000000E+00
  0.00000000E+00  0.00000000E+00  0.00000000E+00
  0.00000000E+00  0.00000000E+00  0.00000000E+00
  0.00000000E+00  0.00000000E+00  0.00000000E+00
  0.00000000E+00  0.00000000E+00  0.00000000E+00
  0.00000000E+00  0.00000000E+00  0.00000000E+00
  0.00000000E+00  0.00000000E+00  0.00000000E+00
  0.00000000E+00  0.00000000E+00  0.00000000E+00
  0.00000000E+00  0.00000000E+00  0.00000000E+00
  0.00000000E+00  0.00000000E+00  0.00000000E+00
  0.00000000E+00  0.00000000E+00  0.00000000E+00
  0.00000000E+00  0.00000000E+00  0.00000000E+00
  0.00000000E+00  0.00000000E+00  0.00000000E+00
  0.00000000E+00  0.00000000E+00  0.00000000E+00
  0.00000000E+00  0.00000000E+00  0.00000000E+00
  0.00000000E+00  0.00000000E+00  0.00000000E+00
  0.00000000E+00  0.00000000E+00  0.00000000E+00
  0.00000000E+00  0.00000000E+00  0.00000000E+00
  0.00000000E+00  0.00000000E+00  0.00000000E+00
  0.00000000E+00  0.00000000E+00  0.00000000E+00
  0.00000000E+00  0.00000000E+00  0.00000000E+00
  0.00000000E+00  0.00000000E+00  0.00000000E+00
  0.00000000E+00  0.00000000E+00  0.00000000E+00
  0.00000000E+00  0.00000000E+00  0.00000000E+00
  0.00000000E+00  0.00000000E+00  0.00000000E+00
  0.00000000E+00  0.00000000E+00  0.00000000E+00
  0.00000000E+00  0.00000000E+00  0.00000000E+00
  0.00000000E+00  0.00000000E+00  0.00000000E+00
  0.00000000E+00  0.00000000E+00  0.00000000E+00
  0.00000000E+00  0.00000000E+00  0.00000000E+00
  0.00000000E+00  0.00000000E+00  0.00000000E+00
  0.00000000E+00  0.00000000E+00  0.00000000E+00
  0.00000000E+00  0.00000000E+00  0.00000000E+00
  0.00000000E+00  0.00000000E+00  0.00000000E+00
  0.00000000E+00  0.00000000E+00  0.00000000E+00
  0.00000000E+00  0.00000000E+00  0.00000000E+00
  0.00000000E+00  0.00000000E+00  0.00000000E+00
  0.00000000E+00  0.00000000E+00  0.00000000E+00
  0.00000000E+00  0.00000000E+00  0.00000000E+00
  0.00000000E+00  0.00000000E+00  0.00000000E+00
  0.00000000E+00  0.00000000E+00  0.00000000E+00
  0.00000000E+00  0.00000000E+00  0.00000000E+00
  0.00000000E+00  0.00000000E+00  0.00000000E+00
  0.00000000E+00  0.00000000E+00  0.00000000E+00
  0.00000000E+00  0.00000000E+00  0.00000000E+00
  0.00000000E+00  0.00000000E+00  0.00000000E+00
  0.00000000E+00  0.00000000E+00  0.00000000E+00
  0.00000000E+00  0.00000000E+00  0.00000000E+00
  0.00000000E+00  0.00000000E+00  0.00000000E+00
  0.00000000E+00  0.00000000E+00  0.00000000E+00
