 W                                      
   1.00000000000000     
     5.2908337330143533    0.0000000000000000    0.0000000000000000
     0.9619689368421053    7.0689963444976076    0.0000000000000000
     0.0000000000000000    0.0000000000000000   70.3356453907495904
   W 
   144
Direct
  0.6873028411441527  0.3271314772003983  0.0115248108884259
  0.3538942768226703  0.6604922061973602  0.0115228065252615
  0.0206143371073240  0.9937795154548946  0.0115231565673928
  0.5699376830017194  0.9445589957832814  0.0268835184682063
  0.9031994479159399  0.6111902101903027  0.0268832466084901
  0.2365833837820389  0.2779187912816807  0.0268813470009679
  0.7849244953238399  0.2295880472587421  0.0454653474148419
  0.1182738520325631  0.8962591434422360  0.0454645230908126
  0.4515896555853382  0.5629215424947747  0.0454676357152010
  0.0087685303468727  0.5058604690808133  0.0636452344254670
  0.6754560331686158  0.8391974300694193  0.0636492265623575
  0.3421188890218841  0.1725172645836112  0.0636507395308914
  0.8991870833188541  0.1156295681201080  0.0824661697802404
  0.5658816457430844  0.4489639469317728  0.0824607376935990
  0.2325347632445469  0.7822738478560700  0.0824612890166084
  0.4559661717185281  0.0590390400256723  0.1004870352421492
  0.7892869330734437  0.7256785385155269  0.1004859477868869
  0.1226103263865723  0.3923600713483295  0.1004907757128520
  0.6766340733708787  0.3385446522785611  0.1188399131143925
  0.3433054602076647  0.6718709778994412  0.1188347165220490
  0.0099579836990550  0.0052018818350678  0.1188343591188402
  0.2329714771319630  0.2824484754141722  0.1370847718451642
  0.8996361953923419  0.6157814933422151  0.1370908616902191
  0.5663043775234329  0.9490910425861235  0.1370852725842133
  0.1220277069749863  0.8936786470620882  0.1555777056176255
  0.4553518145514002  0.5603386599092927  0.1555776976146039
  0.7886633190149211  0.2269961028439052  0.1555718723749165
  0.6781006114798335  0.8379098818209003  0.1738809262714566
  0.0114079359732638  0.5045548509558486  0.1738741829762106
  0.3447472667957306  0.1712197932290930  0.1738739723703095
  0.2331450367034941  0.7831744634203305  0.1922427492782771
  0.5665379076825765  0.4498009243278971  0.1922402401517433
  0.8998497567127816  0.1164795850104084  0.1922473910767928
  0.4555940597218061  0.0611163890391171  0.2105276947525236
  0.7888690121977884  0.7277799017217715  0.2105221722918157
  0.1221846882137357  0.3944544930607063  0.2105287625288106
  0.3446388621448336  0.6724299255345585  0.2289333563982692
  0.0112212083943536  0.0057875973287841  0.2289351969630916
  0.6779171391719840  0.3391537232841952  0.2289432529483274
  0.2339980863087330  0.2833801366504534  0.2472902797504078
  0.5673638581365920  0.9500665304606961  0.2472904026206925
  0.9006745040734679  0.6167230925767163  0.2472989823349294
  0.1229475310114440  0.8948312949494512  0.2656900665898581
  0.7896156264849062  0.2281618187773004  0.2656814342792964
  0.4562532032249749  0.5615936931847684  0.2656920411866338
  0.6787716195235183  0.8395739966798942  0.2839946700501363
  0.0121118476744159  0.5061469553772115  0.2839880390487657
  0.3455269965083879  0.1727371485984640  0.2839969920068114
  0.2343220976122701  0.7844278393819926  0.3023842247278891
  0.9009774985622861  0.1178007990543781  0.3024002010887060
  0.5675520723678644  0.4511734622242390  0.3023658018157058
  0.7904398693752211  0.7287571647561998  0.3207237085336772
  0.1238537107709006  0.3951674429919353  0.3207439821640013
  0.4572590840281549  0.0621187742070481  0.3207542028178833
  0.6794679001382665  0.3403537620688359  0.3392276006754165
  0.0126480268023263  0.0064325141741782  0.3391802836868325
  0.3457272529302199  0.6739331508006269  0.3392003211828560
  0.9032347514191851  0.6175824334934593  0.3574897168152447
  0.5692972175167186  0.9507261146513456  0.3575063424585613
  0.2358800935640629  0.2839873514250651  0.3575064071650301
  0.4579043858842601  0.5631526894068546  0.3758208770510326
  0.7928845495521123  0.2287458783452971  0.3757592032400396
  0.1247208386085582  0.8966947912434344  0.3762553613548359
  0.6807733229298237  0.8413180630233176  0.3939262351844046
  0.3453426498918026  0.1720066943467107  0.3942185817980903
  0.0166560655052197  0.5085517580044179  0.3941853148606514
  0.5706447115424845  0.4520733847453628  0.4112400271969537
  0.8984642248899838  0.1219321765858039  0.4128547755746986
  0.2414653552605196  0.7841174091866491  0.4139402887411151
  0.8040613034296522  0.7426039993739930  0.4298762709868604
  0.4562345971640173  0.0626824960715332  0.4310205643503416
  0.1252764231557820  0.3858040375078939  0.4318688235243391
  0.6268099287268717  0.4674865219853115  0.4480080102875891
  0.9314922322972345  0.0603489098620015  0.4521311657550471
  0.1559302380551309  0.6465446014644232  0.4591699409555571
  0.4212437164866440  0.2149289680209507  0.4660443502267779
  0.6761993603342270  0.7936715696879298  0.4706870377709170
  0.9435676790863204  0.3637263402446972  0.4770168197411555
  0.2019535664445437  0.9373302924472370  0.4831873666381541
  0.4576927234611598  0.5147918811652170  0.4896269554870319
  0.7209564340363702  0.0853978101746867  0.4957066576756603
  0.9763477388813110  0.6613114245761351  0.5016659352083647
  0.2373109722964825  0.2354446037708134  0.5079827536189152
  0.4961295611526919  0.8094329732760478  0.5139987083917119
  0.7560456395529279  0.3830169993923058  0.5199196558083994
  0.0160506952087382  0.9568988549590550  0.5260696315713057
  0.2750910332457708  0.5316838862030020  0.5322952352452094
  0.5349285989309858  0.1053553992602284  0.5384328144559808
  0.7943034760081406  0.6794688670895270  0.5445463924480354
  0.0539237609874416  0.2538920177686847  0.5507313841655607
  0.3127386134212905  0.8277986312245041  0.5568415715605280
  0.5725875710855475  0.4019390424082606  0.5629115091447020
  0.8319832344009955  0.9758708232515995  0.5690619854145718
  0.0911294978323209  0.5501475446349395  0.5751985176702393
  0.3504840622558962  0.1242800247828906  0.5813252743009074
  0.6099723804912812  0.6983571560315285  0.5874331342838610
  0.8690229075582326  0.2724269619219299  0.5935700471753804
  0.1283791597308892  0.8465375934644547  0.5996987738208246
  0.3876869378639919  0.4205374299408950  0.6058086493755587
  0.6472219246738184  0.9945843847895218  0.6119601951839969
  0.9065691026762038  0.5686919356196852  0.6180839955673730
  0.1658962247673928  0.1428748197097938  0.6242040410560246
  0.4253284200779925  0.7170515715066091  0.6303225580697718
  0.6845752587885910  0.2911126883011974  0.6364498027479210
  0.9438693983617671  0.8652122504144112  0.6425792165877533
  0.2031828571022519  0.4392690258769385  0.6486942304680652
  0.4624357261692199  0.0133866276459553  0.6548285471469318
  0.7216097001944733  0.5875574634542651  0.6609486660442554
  0.9809772430006720  0.1617915267764599  0.6670552781903885
  0.2402790131677554  0.7358704346450046  0.6731735271055632
  0.4995807865931816  0.3100060293611279  0.6793030042926174
  0.7586925947154332  0.8840658007896617  0.6854377176217146
  0.0182171252079175  0.4581932683038635  0.6915422419261463
  0.2773569992489305  0.0322253877332750  0.6976731404527557
  0.5366074727374482  0.6064137487032369  0.7037851907404417
  0.7957985832417598  0.1805761601703924  0.7099031559821798
  0.0551066058125787  0.7547924430264610  0.7160113618492280
  0.3141691269017186  0.3288081608345148  0.7221552509457840
  0.5735010862859979  0.9029821619878934  0.7282867615335100
  0.8325087559546288  0.4770685700055446  0.7343639541349849
  0.0918782577281764  0.0511975438748368  0.7405043075508820
  0.3508121022422214  0.6253825920961007  0.7465943555016172
  0.6102106683292363  0.1995627023812245  0.7527324127348569
  0.8693380091382279  0.7736306510885703  0.7588591764637668
  0.1291853449611073  0.3474527452125887  0.7650194410062602
  0.3884282965771145  0.9215000411466595  0.7711350180483336
  0.6482147503698505  0.4957575449258684  0.7772021908737092
  0.9071209210217855  0.0694924643606014  0.7833029714115453
  0.1667159783879848  0.6438024510200813  0.7892663848343011
  0.4247359602947188  0.2186396864195977  0.7954634319929127
  0.6849715352726746  0.7926288748255187  0.8016916851846084
  0.9434479551983693  0.3665311382851071  0.8078139814116753
  0.2051013571411241  0.9397286461168523  0.8139058170562672
  0.4651102085770480  0.5146773130568609  0.8197876658998977
  0.7251043893651363  0.0873515747141896  0.8259670906497074
  0.9867368773119670  0.6613893562996884  0.8317616694260153
  0.2426786405697393  0.2375867880100136  0.8380401738241202
  0.4994999628523643  0.8104668363061285  0.8448443083922208
  0.7581928602676021  0.3828123963740978  0.8511890481842077
  0.0157190918499796  0.9577696746536116  0.8570684277065150
  0.2620314586375054  0.5317142773253732  0.8623853643800259
  0.5163446239671432  0.1143622832243062  0.8674124272316855
  0.8064211846987984  0.6863954578629423  0.8721305774150644
  0.0601764727674078  0.2538630149740099  0.8781626305421308
 
  0.00000000E+00  0.00000000E+00  0.00000000E+00
  0.00000000E+00  0.00000000E+00  0.00000000E+00
  0.00000000E+00  0.00000000E+00  0.00000000E+00
  0.00000000E+00  0.00000000E+00  0.00000000E+00
  0.00000000E+00  0.00000000E+00  0.00000000E+00
  0.00000000E+00  0.00000000E+00  0.00000000E+00
  0.00000000E+00  0.00000000E+00  0.00000000E+00
  0.00000000E+00  0.00000000E+00  0.00000000E+00
  0.00000000E+00  0.00000000E+00  0.00000000E+00
  0.00000000E+00  0.00000000E+00  0.00000000E+00
  0.00000000E+00  0.00000000E+00  0.00000000E+00
  0.00000000E+00  0.00000000E+00  0.00000000E+00
  0.00000000E+00  0.00000000E+00  0.00000000E+00
  0.00000000E+00  0.00000000E+00  0.00000000E+00
  0.00000000E+00  0.00000000E+00  0.00000000E+00
  0.00000000E+00  0.00000000E+00  0.00000000E+00
  0.00000000E+00  0.00000000E+00  0.00000000E+00
  0.00000000E+00  0.00000000E+00  0.00000000E+00
  0.00000000E+00  0.00000000E+00  0.00000000E+00
  0.00000000E+00  0.00000000E+00  0.00000000E+00
  0.00000000E+00  0.00000000E+00  0.00000000E+00
  0.00000000E+00  0.00000000E+00  0.00000000E+00
  0.00000000E+00  0.00000000E+00  0.00000000E+00
  0.00000000E+00  0.00000000E+00  0.00000000E+00
  0.00000000E+00  0.00000000E+00  0.00000000E+00
  0.00000000E+00  0.00000000E+00  0.00000000E+00
  0.00000000E+00  0.00000000E+00  0.00000000E+00
  0.00000000E+00  0.00000000E+00  0.00000000E+00
  0.00000000E+00  0.00000000E+00  0.00000000E+00
  0.00000000E+00  0.00000000E+00  0.00000000E+00
  0.00000000E+00  0.00000000E+00  0.00000000E+00
  0.00000000E+00  0.00000000E+00  0.00000000E+00
  0.00000000E+00  0.00000000E+00  0.00000000E+00
  0.00000000E+00  0.00000000E+00  0.00000000E+00
  0.00000000E+00  0.00000000E+00  0.00000000E+00
  0.00000000E+00  0.00000000E+00  0.00000000E+00
  0.00000000E+00  0.00000000E+00  0.00000000E+00
  0.00000000E+00  0.00000000E+00  0.00000000E+00
  0.00000000E+00  0.00000000E+00  0.00000000E+00
  0.00000000E+00  0.00000000E+00  0.00000000E+00
  0.00000000E+00  0.00000000E+00  0.00000000E+00
  0.00000000E+00  0.00000000E+00  0.00000000E+00
  0.00000000E+00  0.00000000E+00  0.00000000E+00
  0.00000000E+00  0.00000000E+00  0.00000000E+00
  0.00000000E+00  0.00000000E+00  0.00000000E+00
  0.00000000E+00  0.00000000E+00  0.00000000E+00
  0.00000000E+00  0.00000000E+00  0.00000000E+00
  0.00000000E+00  0.00000000E+00  0.00000000E+00
  0.00000000E+00  0.00000000E+00  0.00000000E+00
  0.00000000E+00  0.00000000E+00  0.00000000E+00
  0.00000000E+00  0.00000000E+00  0.00000000E+00
  0.00000000E+00  0.00000000E+00  0.00000000E+00
  0.00000000E+00  0.00000000E+00  0.00000000E+00
  0.00000000E+00  0.00000000E+00  0.00000000E+00
  0.00000000E+00  0.00000000E+00  0.00000000E+00
  0.00000000E+00  0.00000000E+00  0.00000000E+00
  0.00000000E+00  0.00000000E+00  0.00000000E+00
  0.00000000E+00  0.00000000E+00  0.00000000E+00
  0.00000000E+00  0.00000000E+00  0.00000000E+00
  0.00000000E+00  0.00000000E+00  0.00000000E+00
  0.00000000E+00  0.00000000E+00  0.00000000E+00
  0.00000000E+00  0.00000000E+00  0.00000000E+00
  0.00000000E+00  0.00000000E+00  0.00000000E+00
  0.00000000E+00  0.00000000E+00  0.00000000E+00
  0.00000000E+00  0.00000000E+00  0.00000000E+00
  0.00000000E+00  0.00000000E+00  0.00000000E+00
  0.00000000E+00  0.00000000E+00  0.00000000E+00
  0.00000000E+00  0.00000000E+00  0.00000000E+00
  0.00000000E+00  0.00000000E+00  0.00000000E+00
  0.00000000E+00  0.00000000E+00  0.00000000E+00
  0.00000000E+00  0.00000000E+00  0.00000000E+00
  0.00000000E+00  0.00000000E+00  0.00000000E+00
  0.00000000E+00  0.00000000E+00  0.00000000E+00
  0.00000000E+00  0.00000000E+00  0.00000000E+00
  0.00000000E+00  0.00000000E+00  0.00000000E+00
  0.00000000E+00  0.00000000E+00  0.00000000E+00
  0.00000000E+00  0.00000000E+00  0.00000000E+00
  0.00000000E+00  0.00000000E+00  0.00000000E+00
  0.00000000E+00  0.00000000E+00  0.00000000E+00
  0.00000000E+00  0.00000000E+00  0.00000000E+00
  0.00000000E+00  0.00000000E+00  0.00000000E+00
  0.00000000E+00  0.00000000E+00  0.00000000E+00
  0.00000000E+00  0.00000000E+00  0.00000000E+00
  0.00000000E+00  0.00000000E+00  0.00000000E+00
  0.00000000E+00  0.00000000E+00  0.00000000E+00
  0.00000000E+00  0.00000000E+00  0.00000000E+00
  0.00000000E+00  0.00000000E+00  0.00000000E+00
  0.00000000E+00  0.00000000E+00  0.00000000E+00
  0.00000000E+00  0.00000000E+00  0.00000000E+00
  0.00000000E+00  0.00000000E+00  0.00000000E+00
  0.00000000E+00  0.00000000E+00  0.00000000E+00
  0.00000000E+00  0.00000000E+00  0.00000000E+00
  0.00000000E+00  0.00000000E+00  0.00000000E+00
  0.00000000E+00  0.00000000E+00  0.00000000E+00
  0.00000000E+00  0.00000000E+00  0.00000000E+00
  0.00000000E+00  0.00000000E+00  0.00000000E+00
  0.00000000E+00  0.00000000E+00  0.00000000E+00
  0.00000000E+00  0.00000000E+00  0.00000000E+00
  0.00000000E+00  0.00000000E+00  0.00000000E+00
  0.00000000E+00  0.00000000E+00  0.00000000E+00
  0.00000000E+00  0.00000000E+00  0.00000000E+00
  0.00000000E+00  0.00000000E+00  0.00000000E+00
  0.00000000E+00  0.00000000E+00  0.00000000E+00
  0.00000000E+00  0.00000000E+00  0.00000000E+00
  0.00000000E+00  0.00000000E+00  0.00000000E+00
  0.00000000E+00  0.00000000E+00  0.00000000E+00
  0.00000000E+00  0.00000000E+00  0.00000000E+00
  0.00000000E+00  0.00000000E+00  0.00000000E+00
  0.00000000E+00  0.00000000E+00  0.00000000E+00
  0.00000000E+00  0.00000000E+00  0.00000000E+00
  0.00000000E+00  0.00000000E+00  0.00000000E+00
  0.00000000E+00  0.00000000E+00  0.00000000E+00
  0.00000000E+00  0.00000000E+00  0.00000000E+00
  0.00000000E+00  0.00000000E+00  0.00000000E+00
  0.00000000E+00  0.00000000E+00  0.00000000E+00
  0.00000000E+00  0.00000000E+00  0.00000000E+00
  0.00000000E+00  0.00000000E+00  0.00000000E+00
  0.00000000E+00  0.00000000E+00  0.00000000E+00
  0.00000000E+00  0.00000000E+00  0.00000000E+00
  0.00000000E+00  0.00000000E+00  0.00000000E+00
  0.00000000E+00  0.00000000E+00  0.00000000E+00
  0.00000000E+00  0.00000000E+00  0.00000000E+00
  0.00000000E+00  0.00000000E+00  0.00000000E+00
  0.00000000E+00  0.00000000E+00  0.00000000E+00
  0.00000000E+00  0.00000000E+00  0.00000000E+00
  0.00000000E+00  0.00000000E+00  0.00000000E+00
  0.00000000E+00  0.00000000E+00  0.00000000E+00
  0.00000000E+00  0.00000000E+00  0.00000000E+00
  0.00000000E+00  0.00000000E+00  0.00000000E+00
  0.00000000E+00  0.00000000E+00  0.00000000E+00
  0.00000000E+00  0.00000000E+00  0.00000000E+00
  0.00000000E+00  0.00000000E+00  0.00000000E+00
  0.00000000E+00  0.00000000E+00  0.00000000E+00
  0.00000000E+00  0.00000000E+00  0.00000000E+00
  0.00000000E+00  0.00000000E+00  0.00000000E+00
  0.00000000E+00  0.00000000E+00  0.00000000E+00
  0.00000000E+00  0.00000000E+00  0.00000000E+00
  0.00000000E+00  0.00000000E+00  0.00000000E+00
  0.00000000E+00  0.00000000E+00  0.00000000E+00
  0.00000000E+00  0.00000000E+00  0.00000000E+00
  0.00000000E+00  0.00000000E+00  0.00000000E+00
  0.00000000E+00  0.00000000E+00  0.00000000E+00
  0.00000000E+00  0.00000000E+00  0.00000000E+00
  0.00000000E+00  0.00000000E+00  0.00000000E+00
