 W                                      
   1.00000000000000     
     6.9535096267942578    0.0000000000000000    0.0000000000000000
     0.0000000000000000   10.0892193173843694    0.0000000000000000
     0.0000000000000000    0.0000000000000000   87.9557672089314195
   W 
   264
Direct
  0.5915900359789460  0.1948218023090048  0.0078948618424005
  0.2340887662128473  0.0955414835495455  0.0097765581342234
  0.8582429720200773  0.0011624013713023  0.0118422279665076
  0.4921049658245552  0.9024033401540755  0.0142238714870362
  0.1268035198389080  0.8058233242860791  0.0165455505626732
  0.7577349107406798  0.7070486476597049  0.0190010571343013
  0.3896844998596373  0.6090491235626465  0.0214314515409367
  0.0229886866124133  0.5103076781492333  0.0240263472479053
  0.6539017571046268  0.4085520328349787  0.0257586176109031
  0.2834003952538883  0.3107309889396469  0.0279172324948282
  0.9207067129432173  0.2122986699519477  0.0300292043470461
  0.5492589898282090  0.1089458340166413  0.0337702571278387
  0.1811393733409070  0.0082728592560351  0.0362798439824099
  0.8115249795317913  0.9085978830791476  0.0387682407111284
  0.4430905380314422  0.8078381451700383  0.0415733782021458
  0.0754404916389347  0.7079698605967215  0.0440745528502099
  0.7075663776118261  0.6095982235113517  0.0466011537616790
  0.3409525554406324  0.5092593320622030  0.0490487464454448
  0.9713365009804261  0.4100915803733371  0.0515321707864419
  0.6036283110837344  0.3107426595002687  0.0541308206811499
  0.2339304110658600  0.2107666247638295  0.0568129329156031
  0.8654401093612162  0.1104904813729225  0.0594607967389080
  0.4961081886409875  0.0086886558589005  0.0625796265965953
  0.1272479667596897  0.9087956816009859  0.0651401766425543
  0.7593067338031773  0.8084057100466966  0.0676925983718261
  0.3901800921984151  0.7076392513822786  0.0702398664768945
  0.0225456781319689  0.6076556897634711  0.0727384445948200
  0.6543697503909793  0.5082895510027968  0.0753335034780611
  0.2858806923805125  0.4083376079584601  0.0778262245120145
  0.9172347528616652  0.3085379812749701  0.0803810661884735
  0.5489008942228001  0.2087480860209056  0.0830467681601639
  0.1795407332488397  0.1093823013203225  0.0856918486129150
  0.8123439098482553  0.0095401505257998  0.0883633699169361
  0.4440213481897369  0.9095674595983421  0.0909530939886810
  0.0754291751745120  0.8097021536339395  0.0935437956864476
  0.7069023677855678  0.7094273009990736  0.0960984336059518
  0.3384533412428666  0.6095068416700783  0.0987449729416370
  0.9702825530198271  0.5095150630549574  0.1013218047467119
  0.6017586832733989  0.4097014301597633  0.1039029610408686
  0.2331150332966690  0.3096684533671278  0.1064815476125199
  0.8646669453233693  0.2096687418830928  0.1090920241837019
  0.4961050308980499  0.1097076889660245  0.1117009405479393
  0.1280522322914246  0.0094243146678715  0.1143389179993023
  0.7592948467114824  0.9093478400661978  0.1169741404651659
  0.3908516193627827  0.8091814882017867  0.1196124068319457
  0.0220249543509963  0.7090810075590295  0.1222077672835971
  0.6538593530379410  0.6089432810622053  0.1248180456159073
  0.2855152703446889  0.5089922701856715  0.1274197955042817
  0.9170439729990167  0.4090065883074087  0.1300141703259819
  0.5484508456556403  0.3090625661011100  0.1326163244492542
  0.1800298581048070  0.2091684888831540  0.1352093531892003
  0.8116734271194814  0.1091546210299756  0.1377938090002506
  0.4432537190485381  0.0092298374502552  0.1404394812645726
  0.0747267844596780  0.9093567877655981  0.1430413572038207
  0.7063878961053672  0.8093414101078877  0.1456576383613302
  0.3378836150166095  0.7092650213360948  0.1482478111051386
  0.9695756680581796  0.6093282488993625  0.1508541764541310
  0.6011653138656494  0.5094502823052789  0.1534531877539730
  0.2326766957074525  0.4094253707030514  0.1560678057571268
  0.8641903434141172  0.3095187988333824  0.1586707817931231
  0.4958198785999904  0.2095794380976033  0.1612665273469422
  0.1272840158863816  0.1096480428968160  0.1638816111155230
  0.7588685137651191  0.0096251079810198  0.1665053539588431
  0.3904518108468681  0.9096647589676641  0.1691040419267198
  0.0220970307786116  0.8095694828897969  0.1717171930599627
  0.6535638816697814  0.7095292871553582  0.1743266945956188
  0.2850727482000601  0.6094880275866277  0.1769339959676459
  0.9165452016841860  0.5094832803800677  0.1795450868361344
  0.5480661212736397  0.4094094555045281  0.1821692287094615
  0.1797059746498130  0.3094333016891690  0.1847663425043541
  0.8111610887655107  0.2094017959963346  0.1873808413614519
  0.4426688465679307  0.1093505073264933  0.1899942895051161
  0.0741971382789253  0.0094711493664753  0.1925988175605838
  0.7058952568060298  0.9094823340154736  0.1952028282756073
  0.3373459039171263  0.8094269086722077  0.1978334154690709
  0.9689132412999861  0.7095045573318930  0.2004337418118451
  0.6003915306089552  0.6095312858422061  0.2030298555497154
  0.2320080660580292  0.5094655489810300  0.2056499017865185
  0.8635464262335950  0.4095213503642683  0.2082499548939978
  0.4950709736715506  0.3095726312726455  0.2108548881809356
  0.1266358947573137  0.2095319777981346  0.2134735768032251
  0.7580890165767894  0.1095846196065359  0.2160730977425067
  0.3896912102794832  0.0096469258812861  0.2186576365095663
  0.0212996499704388  0.9096254594016016  0.2212828201826569
  0.6528049490174280  0.8096961757876854  0.2238940677814123
  0.2843716795585918  0.7096844236955636  0.2264975879156376
  0.9158748382601023  0.6096046888305592  0.2290876156936028
  0.5475475836902782  0.5095891004347768  0.2317126913088657
  0.1788300286732843  0.4095999390617824  0.2343344745002972
  0.8104293543706644  0.3095069779893455  0.2369467528046807
  0.4419026231283639  0.2095958560378820  0.2395842931759325
  0.0735672134624734  0.1095854591988334  0.2421752953309809
  0.7048885277119376  0.0095915415961751  0.2447800800232147
  0.3365886090731809  0.9096764359667141  0.2474065093464659
  0.9680389384568152  0.8097922621953901  0.2500015360625052
  0.5995887981979502  0.7094475204621226  0.2525870762127918
  0.2311177498905598  0.6093951912831790  0.2552243604858195
  0.8627289586904171  0.5095174317984088  0.2578404757709313
  0.4940230299182685  0.4093668088351013  0.2604306097413446
  0.1256354077753322  0.3093277139685073  0.2631220936534556
  0.7576439709448407  0.2098307677717627  0.2657209148792971
  0.3883538568102937  0.1097232645867728  0.2683543120277112
  0.0203598880024117  0.0097793236561919  0.2709573703491698
  0.6517190166808097  0.9099885172758866  0.2735263999610082
  0.2832551734405244  0.8097749861240725  0.2760717358028122
  0.9150252167304874  0.7097349835693127  0.2786678178875690
  0.5466541239447668  0.6095237665871223  0.2812767094828137
  0.1782225989903349  0.5092532663214785  0.2838853805239782
  0.8095693483095503  0.4089600265724569  0.2865005123815645
  0.4403206580981440  0.3093223080255698  0.2892364746475972
  0.0725318720940324  0.2087888295922752  0.2921017212558776
  0.7041101483829286  0.1101171215503153  0.2943375562145620
  0.3342734071876381  0.0094834792206389  0.2971208109245345
  0.9689046576657049  0.9107075051553476  0.2996110325907542
  0.5983891262273403  0.8093877727867935  0.3019579356408652
  0.2308111712487007  0.7102490040204347  0.3046379934868350
  0.8633873593828520  0.6085672614680380  0.3071816948920987
  0.4947755950941889  0.5095093230800638  0.3098353856201493
  0.1235889309045025  0.4100546585393647  0.3125073006218581
  0.7578455541500929  0.3100808443171682  0.3151727037701964
  0.3861733932401149  0.2091123698324025  0.3180584174921646
  0.0184940003106740  0.1054975288646551  0.3216843163252943
  0.6497781239786892  0.0139575929846107  0.3224590411153291
  0.2876217123642563  0.9090229653505465  0.3262065253224082
  0.9108431650394208  0.8080252523826403  0.3277937347157129
  0.5539500824636976  0.7066746286719404  0.3307546241273600
  0.1795804447615230  0.6217754046584938  0.3331777273808027
  0.8143727224295443  0.5088305619913188  0.3366045141730809
  0.4299738556588155  0.4089452323529936  0.3383456194599401
  0.0775318602283669  0.3118273662745718  0.3413104340558610
  0.7063106378452720  0.2317064041355004  0.3438932106112259
  0.3410551446425041  0.0999912369937346  0.3476447277075970
  0.7042793239844574  0.9675128720129671  0.3513633986276547
  0.0757415541334261  0.8881519136709031  0.3539673537070325
  0.4278739264978692  0.7904586813420332  0.3569271615713827
  0.8124577885586889  0.6909818242436558  0.3587044722884843
  0.1766926572616476  0.5779915081802783  0.3621044038807721
  0.5515554986744980  0.4934960322017839  0.3645225476513387
  0.9080214903349814  0.3917565176154229  0.3674877797450308
  0.2844559533846691  0.2909476700501592  0.3691256322892689
  0.6465787860544845  0.1861004891338172  0.3727898384741122
  0.0151215422977708  0.0945042869503798  0.3735524635656706
  0.3829528887210960  0.9908566367047044  0.3772035577555290
  0.7543479015140818  0.8898932895896389  0.3801042898037979
  0.1202199468917387  0.7899589889546043  0.3827701713868852
  0.4910932979263815  0.6904226006509977  0.3854449809416742
  0.8596253709550242  0.5913858231878976  0.3881101432841553
  0.2269138743986180  0.4897645820718918  0.3906477885899994
  0.5943948368094254  0.3905783156653700  0.3933149486964322
  0.9647637621279200  0.2893182025564189  0.3956678461971410
  0.3300610730543519  0.1904842028473203  0.3981477902916344
  0.6997968446612300  0.0899263429103691  0.4009264735145261
  0.0681507650152142  0.9912943470511271  0.4031654306155482
  0.4358552995151756  0.8906950612650021  0.4060449222563587
  0.8050144490385215  0.7910720009159187  0.4087795772288281
  0.1735327509602162  0.6907972060418661  0.4113920619790642
  0.5418575758316130  0.5904802261397371  0.4140082395363006
  0.9101019316727841  0.4902616412797023  0.4166104751207335
  0.2782636726959631  0.3902419057036286  0.4192095441832860
  0.6465916484770673  0.2899871370291316  0.4217470532452534
  0.0151607424680209  0.1902243500517371  0.4243170393900983
  0.3830332676610433  0.0902772491013119  0.4269195929235048
  0.7521925484027090  0.9902189149103708  0.4295537125695785
  0.1201317849773782  0.8907037444550796  0.4321513837929263
  0.4884009147685005  0.7906961170200858  0.4348400778270229
  0.8570260377132998  0.6905523327389118  0.4374331439461924
  0.2252266339756876  0.5906471219609775  0.4400518839118653
  0.5936724106155581  0.4906566235968324  0.4426895473898647
  0.9619726194900371  0.3902626494824222  0.4452773669293127
  0.3305090260023729  0.2903818157835013  0.4478666854616590
  0.6986076636014890  0.1904996512162301  0.4504954587040315
  0.0672318593871594  0.0904843423359339  0.4530976677011042
  0.4354410996909899  0.9904663939528466  0.4556903083637149
  0.8039232080913885  0.8905595102583560  0.4583232817339274
  0.1722177743392012  0.7904816759418264  0.4609374821439124
  0.5408371367230839  0.6904155652617607  0.4635601690960220
  0.9090741308179737  0.5904722101985178  0.4661937540941871
  0.2775141360446636  0.4904066147743322  0.4687753108788164
  0.6458320938059167  0.3903238479324018  0.4713874657265557
  0.0142681183872598  0.2904501352900613  0.4739849320581210
  0.3824764353465657  0.1904418378989796  0.4766212070187535
  0.7508934217665719  0.0904382419819653  0.4792042676160327
  0.1192783680038915  0.9905499566489037  0.4818067714645442
  0.4876666824715600  0.8905486267266995  0.4844227529994799
  0.8560249196406728  0.7905115214013755  0.4870279029327690
  0.2245077353188383  0.6906013132956376  0.4896290030299544
  0.5926500329898623  0.5905659279146895  0.4922448709764541
  0.9611954695299753  0.4905551134218049  0.4948405966980962
  0.3294893416344202  0.3905869422660301  0.4974439651325270
  0.6979758621964884  0.2906219099882745  0.5000579045546643
  0.0661760545009590  0.1906015811732134  0.5026830252345139
  0.4346781648630095  0.0906742593988129  0.5052736263897907
  0.8029506446378785  0.9907498094819833  0.5078945499215849
  0.1713740188349877  0.8906807797106702  0.5105103295461542
  0.5398026173613196  0.7906900975164640  0.5131119605802685
  0.9081135859234053  0.6906724319874238  0.5157161907311461
  0.2764633815328954  0.5906515636455427  0.5183426448324091
  0.6450419835158749  0.4905792496582973  0.5209454956363027
  0.0133726590500932  0.3905357673998812  0.5235615245386176
  0.3818330336517021  0.2905342739776079  0.5261699417579155
  0.7500889640688927  0.1904233892092048  0.5287772149479685
  0.1185588901304107  0.0904432470880865  0.5313761291089018
  0.4867888416236121  0.9904776468663635  0.5340073699002728
  0.8552731593150268  0.8905363946874602  0.5366149099566514
  0.2235857921255576  0.7905647079172500  0.5392050951114959
  0.5920271662027474  0.6906549679894222  0.5418223827414218
  0.9603919034716103  0.5907221606760686  0.5444321689318807
  0.3288294221597681  0.4907744359185916  0.5470262410670718
  0.6969812503898882  0.3908384914754630  0.5496376523789848
  0.0654205354765260  0.2908100788807476  0.5522247685349467
  0.4337136491029427  0.1907752621064356  0.5548377517063275
  0.8022281498861946  0.0908824956844884  0.5574443561098112
  0.1704901685747215  0.9909828118706229  0.5600891174644248
  0.5388382931490228  0.8909555892568563  0.5626662139431997
  0.9072660581974736  0.7910497875460438  0.5652666987589535
  0.2757065431077089  0.6911105600008253  0.5678707712074689
  0.6441587322289495  0.5911572483076484  0.5704602036464147
  0.0124431779239227  0.4911522306165652  0.5730616776009188
  0.3805295855432522  0.3910387983131082  0.5756750513434189
  0.7493112433101137  0.2909765528273349  0.5782677945760900
  0.1177459604544646  0.1907517668681559  0.5809092829406558
  0.4864288414588546  0.0906773202715696  0.5835433103213749
  0.8543788332353797  0.9904706765646185  0.5861816912618616
  0.2229881677054658  0.8904348700269028  0.5887883696477179
  0.5913572551779228  0.7904423543837465  0.5914033415573557
  0.9599076879466184  0.6904618338942261  0.5939780240555225
  0.3284132271779711  0.5906162980589383  0.5965583160035420
  0.6965410700422614  0.4905903952506737  0.5991393489869901
  0.0649396310359468  0.3907306590685617  0.6017841149669007
  0.4334285666814190  0.2904294197537512  0.6043380675040555
  0.8019963996474112  0.1905131188427329  0.6069300915687010
  0.1702577859771130  0.0905996196414865  0.6095172949971491
  0.5373975757441112  0.9907519615080170  0.6121886091677935
  0.9067875865533497  0.8913743430884657  0.6148341789884573
  0.2750250138865901  0.7915948843927381  0.6175010250477923
  0.6436439477250668  0.6918238779404077  0.6200540380422851
  0.0120919536114328  0.5918476070695037  0.6225479345729202
  0.3802692640157573  0.4924802491816635  0.6251438431570102
  0.7478268376627999  0.3925247953919133  0.6276405999579380
  0.1169332452872240  0.2917415594697796  0.6301869453475426
  0.4848423107495228  0.1913246912475079  0.6327399837568471
  0.8536680604269758  0.0914731221602415  0.6352983726344000
  0.2229670172166729  0.9896691388424221  0.6384157254146212
  0.5914347267323077  0.8893537472664993  0.6410693463317845
  0.9610772983309929  0.7893935468090232  0.6437479777028593
  0.3287749099997419  0.6900663471133891  0.6463498447147803
  0.6983833634445561  0.5908527483108962  0.6488315198122871
  0.0649520634988415  0.4905344095090234  0.6512779559565742
  0.4327851435299434  0.3921803635355302  0.6538048999716506
  0.8004251151428052  0.2923119323874533  0.6563059035740758
  0.1688313536218582  0.1915230497534072  0.6591124992919244
  0.5384004337338367  0.0918911532340435  0.6616011132803102
  0.9065281517662921  0.9912105013689110  0.6641086784154822
  0.2779624249182018  0.8878092614631428  0.6678519432165679
  0.6406465560444214  0.7894176418936931  0.6699627525208455
  0.0111619455982115  0.6916093013930137  0.6721245794657251
  0.3802008870289338  0.5898325092754870  0.6738520890647037
  0.7469597802125710  0.4911017725445337  0.6764468109001047
  0.1149524392817000  0.3931324780499255  0.6788814122362664
  0.4839654063144600  0.2942979072856066  0.6813323853445388
  0.8493402711686665  0.1977379064111036  0.6836526905769982
  0.2154270735524637  0.0990226147221219  0.6860400435026082
  0.5911656286856132  0.0046053685275527  0.6881011788422416
  0.9487378160544718  0.9053532091749347  0.6899804039711603
 
  0.00000000E+00  0.00000000E+00  0.00000000E+00
  0.00000000E+00  0.00000000E+00  0.00000000E+00
  0.00000000E+00  0.00000000E+00  0.00000000E+00
  0.00000000E+00  0.00000000E+00  0.00000000E+00
  0.00000000E+00  0.00000000E+00  0.00000000E+00
  0.00000000E+00  0.00000000E+00  0.00000000E+00
  0.00000000E+00  0.00000000E+00  0.00000000E+00
  0.00000000E+00  0.00000000E+00  0.00000000E+00
  0.00000000E+00  0.00000000E+00  0.00000000E+00
  0.00000000E+00  0.00000000E+00  0.00000000E+00
  0.00000000E+00  0.00000000E+00  0.00000000E+00
  0.00000000E+00  0.00000000E+00  0.00000000E+00
  0.00000000E+00  0.00000000E+00  0.00000000E+00
  0.00000000E+00  0.00000000E+00  0.00000000E+00
  0.00000000E+00  0.00000000E+00  0.00000000E+00
  0.00000000E+00  0.00000000E+00  0.00000000E+00
  0.00000000E+00  0.00000000E+00  0.00000000E+00
  0.00000000E+00  0.00000000E+00  0.00000000E+00
  0.00000000E+00  0.00000000E+00  0.00000000E+00
  0.00000000E+00  0.00000000E+00  0.00000000E+00
  0.00000000E+00  0.00000000E+00  0.00000000E+00
  0.00000000E+00  0.00000000E+00  0.00000000E+00
  0.00000000E+00  0.00000000E+00  0.00000000E+00
  0.00000000E+00  0.00000000E+00  0.00000000E+00
  0.00000000E+00  0.00000000E+00  0.00000000E+00
  0.00000000E+00  0.00000000E+00  0.00000000E+00
  0.00000000E+00  0.00000000E+00  0.00000000E+00
  0.00000000E+00  0.00000000E+00  0.00000000E+00
  0.00000000E+00  0.00000000E+00  0.00000000E+00
  0.00000000E+00  0.00000000E+00  0.00000000E+00
  0.00000000E+00  0.00000000E+00  0.00000000E+00
  0.00000000E+00  0.00000000E+00  0.00000000E+00
  0.00000000E+00  0.00000000E+00  0.00000000E+00
  0.00000000E+00  0.00000000E+00  0.00000000E+00
  0.00000000E+00  0.00000000E+00  0.00000000E+00
  0.00000000E+00  0.00000000E+00  0.00000000E+00
  0.00000000E+00  0.00000000E+00  0.00000000E+00
  0.00000000E+00  0.00000000E+00  0.00000000E+00
  0.00000000E+00  0.00000000E+00  0.00000000E+00
  0.00000000E+00  0.00000000E+00  0.00000000E+00
  0.00000000E+00  0.00000000E+00  0.00000000E+00
  0.00000000E+00  0.00000000E+00  0.00000000E+00
  0.00000000E+00  0.00000000E+00  0.00000000E+00
  0.00000000E+00  0.00000000E+00  0.00000000E+00
  0.00000000E+00  0.00000000E+00  0.00000000E+00
  0.00000000E+00  0.00000000E+00  0.00000000E+00
  0.00000000E+00  0.00000000E+00  0.00000000E+00
  0.00000000E+00  0.00000000E+00  0.00000000E+00
  0.00000000E+00  0.00000000E+00  0.00000000E+00
  0.00000000E+00  0.00000000E+00  0.00000000E+00
  0.00000000E+00  0.00000000E+00  0.00000000E+00
  0.00000000E+00  0.00000000E+00  0.00000000E+00
  0.00000000E+00  0.00000000E+00  0.00000000E+00
  0.00000000E+00  0.00000000E+00  0.00000000E+00
  0.00000000E+00  0.00000000E+00  0.00000000E+00
  0.00000000E+00  0.00000000E+00  0.00000000E+00
  0.00000000E+00  0.00000000E+00  0.00000000E+00
  0.00000000E+00  0.00000000E+00  0.00000000E+00
  0.00000000E+00  0.00000000E+00  0.00000000E+00
  0.00000000E+00  0.00000000E+00  0.00000000E+00
  0.00000000E+00  0.00000000E+00  0.00000000E+00
  0.00000000E+00  0.00000000E+00  0.00000000E+00
  0.00000000E+00  0.00000000E+00  0.00000000E+00
  0.00000000E+00  0.00000000E+00  0.00000000E+00
  0.00000000E+00  0.00000000E+00  0.00000000E+00
  0.00000000E+00  0.00000000E+00  0.00000000E+00
  0.00000000E+00  0.00000000E+00  0.00000000E+00
  0.00000000E+00  0.00000000E+00  0.00000000E+00
  0.00000000E+00  0.00000000E+00  0.00000000E+00
  0.00000000E+00  0.00000000E+00  0.00000000E+00
  0.00000000E+00  0.00000000E+00  0.00000000E+00
  0.00000000E+00  0.00000000E+00  0.00000000E+00
  0.00000000E+00  0.00000000E+00  0.00000000E+00
  0.00000000E+00  0.00000000E+00  0.00000000E+00
  0.00000000E+00  0.00000000E+00  0.00000000E+00
  0.00000000E+00  0.00000000E+00  0.00000000E+00
  0.00000000E+00  0.00000000E+00  0.00000000E+00
  0.00000000E+00  0.00000000E+00  0.00000000E+00
  0.00000000E+00  0.00000000E+00  0.00000000E+00
  0.00000000E+00  0.00000000E+00  0.00000000E+00
  0.00000000E+00  0.00000000E+00  0.00000000E+00
  0.00000000E+00  0.00000000E+00  0.00000000E+00
  0.00000000E+00  0.00000000E+00  0.00000000E+00
  0.00000000E+00  0.00000000E+00  0.00000000E+00
  0.00000000E+00  0.00000000E+00  0.00000000E+00
  0.00000000E+00  0.00000000E+00  0.00000000E+00
  0.00000000E+00  0.00000000E+00  0.00000000E+00
  0.00000000E+00  0.00000000E+00  0.00000000E+00
  0.00000000E+00  0.00000000E+00  0.00000000E+00
  0.00000000E+00  0.00000000E+00  0.00000000E+00
  0.00000000E+00  0.00000000E+00  0.00000000E+00
  0.00000000E+00  0.00000000E+00  0.00000000E+00
  0.00000000E+00  0.00000000E+00  0.00000000E+00
  0.00000000E+00  0.00000000E+00  0.00000000E+00
  0.00000000E+00  0.00000000E+00  0.00000000E+00
  0.00000000E+00  0.00000000E+00  0.00000000E+00
  0.00000000E+00  0.00000000E+00  0.00000000E+00
  0.00000000E+00  0.00000000E+00  0.00000000E+00
  0.00000000E+00  0.00000000E+00  0.00000000E+00
  0.00000000E+00  0.00000000E+00  0.00000000E+00
  0.00000000E+00  0.00000000E+00  0.00000000E+00
  0.00000000E+00  0.00000000E+00  0.00000000E+00
  0.00000000E+00  0.00000000E+00  0.00000000E+00
  0.00000000E+00  0.00000000E+00  0.00000000E+00
  0.00000000E+00  0.00000000E+00  0.00000000E+00
  0.00000000E+00  0.00000000E+00  0.00000000E+00
  0.00000000E+00  0.00000000E+00  0.00000000E+00
  0.00000000E+00  0.00000000E+00  0.00000000E+00
  0.00000000E+00  0.00000000E+00  0.00000000E+00
  0.00000000E+00  0.00000000E+00  0.00000000E+00
  0.00000000E+00  0.00000000E+00  0.00000000E+00
  0.00000000E+00  0.00000000E+00  0.00000000E+00
  0.00000000E+00  0.00000000E+00  0.00000000E+00
  0.00000000E+00  0.00000000E+00  0.00000000E+00
  0.00000000E+00  0.00000000E+00  0.00000000E+00
  0.00000000E+00  0.00000000E+00  0.00000000E+00
  0.00000000E+00  0.00000000E+00  0.00000000E+00
  0.00000000E+00  0.00000000E+00  0.00000000E+00
  0.00000000E+00  0.00000000E+00  0.00000000E+00
  0.00000000E+00  0.00000000E+00  0.00000000E+00
  0.00000000E+00  0.00000000E+00  0.00000000E+00
  0.00000000E+00  0.00000000E+00  0.00000000E+00
  0.00000000E+00  0.00000000E+00  0.00000000E+00
  0.00000000E+00  0.00000000E+00  0.00000000E+00
  0.00000000E+00  0.00000000E+00  0.00000000E+00
  0.00000000E+00  0.00000000E+00  0.00000000E+00
  0.00000000E+00  0.00000000E+00  0.00000000E+00
  0.00000000E+00  0.00000000E+00  0.00000000E+00
  0.00000000E+00  0.00000000E+00  0.00000000E+00
  0.00000000E+00  0.00000000E+00  0.00000000E+00
  0.00000000E+00  0.00000000E+00  0.00000000E+00
  0.00000000E+00  0.00000000E+00  0.00000000E+00
  0.00000000E+00  0.00000000E+00  0.00000000E+00
  0.00000000E+00  0.00000000E+00  0.00000000E+00
  0.00000000E+00  0.00000000E+00  0.00000000E+00
  0.00000000E+00  0.00000000E+00  0.00000000E+00
  0.00000000E+00  0.00000000E+00  0.00000000E+00
  0.00000000E+00  0.00000000E+00  0.00000000E+00
  0.00000000E+00  0.00000000E+00  0.00000000E+00
  0.00000000E+00  0.00000000E+00  0.00000000E+00
  0.00000000E+00  0.00000000E+00  0.00000000E+00
  0.00000000E+00  0.00000000E+00  0.00000000E+00
  0.00000000E+00  0.00000000E+00  0.00000000E+00
  0.00000000E+00  0.00000000E+00  0.00000000E+00
  0.00000000E+00  0.00000000E+00  0.00000000E+00
  0.00000000E+00  0.00000000E+00  0.00000000E+00
  0.00000000E+00  0.00000000E+00  0.00000000E+00
  0.00000000E+00  0.00000000E+00  0.00000000E+00
  0.00000000E+00  0.00000000E+00  0.00000000E+00
  0.00000000E+00  0.00000000E+00  0.00000000E+00
  0.00000000E+00  0.00000000E+00  0.00000000E+00
  0.00000000E+00  0.00000000E+00  0.00000000E+00
  0.00000000E+00  0.00000000E+00  0.00000000E+00
  0.00000000E+00  0.00000000E+00  0.00000000E+00
  0.00000000E+00  0.00000000E+00  0.00000000E+00
  0.00000000E+00  0.00000000E+00  0.00000000E+00
  0.00000000E+00  0.00000000E+00  0.00000000E+00
  0.00000000E+00  0.00000000E+00  0.00000000E+00
  0.00000000E+00  0.00000000E+00  0.00000000E+00
  0.00000000E+00  0.00000000E+00  0.00000000E+00
  0.00000000E+00  0.00000000E+00  0.00000000E+00
  0.00000000E+00  0.00000000E+00  0.00000000E+00
  0.00000000E+00  0.00000000E+00  0.00000000E+00
  0.00000000E+00  0.00000000E+00  0.00000000E+00
  0.00000000E+00  0.00000000E+00  0.00000000E+00
  0.00000000E+00  0.00000000E+00  0.00000000E+00
  0.00000000E+00  0.00000000E+00  0.00000000E+00
  0.00000000E+00  0.00000000E+00  0.00000000E+00
  0.00000000E+00  0.00000000E+00  0.00000000E+00
  0.00000000E+00  0.00000000E+00  0.00000000E+00
  0.00000000E+00  0.00000000E+00  0.00000000E+00
  0.00000000E+00  0.00000000E+00  0.00000000E+00
  0.00000000E+00  0.00000000E+00  0.00000000E+00
  0.00000000E+00  0.00000000E+00  0.00000000E+00
  0.00000000E+00  0.00000000E+00  0.00000000E+00
  0.00000000E+00  0.00000000E+00  0.00000000E+00
  0.00000000E+00  0.00000000E+00  0.00000000E+00
  0.00000000E+00  0.00000000E+00  0.00000000E+00
  0.00000000E+00  0.00000000E+00  0.00000000E+00
  0.00000000E+00  0.00000000E+00  0.00000000E+00
  0.00000000E+00  0.00000000E+00  0.00000000E+00
  0.00000000E+00  0.00000000E+00  0.00000000E+00
  0.00000000E+00  0.00000000E+00  0.00000000E+00
  0.00000000E+00  0.00000000E+00  0.00000000E+00
  0.00000000E+00  0.00000000E+00  0.00000000E+00
  0.00000000E+00  0.00000000E+00  0.00000000E+00
  0.00000000E+00  0.00000000E+00  0.00000000E+00
  0.00000000E+00  0.00000000E+00  0.00000000E+00
  0.00000000E+00  0.00000000E+00  0.00000000E+00
  0.00000000E+00  0.00000000E+00  0.00000000E+00
  0.00000000E+00  0.00000000E+00  0.00000000E+00
  0.00000000E+00  0.00000000E+00  0.00000000E+00
  0.00000000E+00  0.00000000E+00  0.00000000E+00
  0.00000000E+00  0.00000000E+00  0.00000000E+00
  0.00000000E+00  0.00000000E+00  0.00000000E+00
  0.00000000E+00  0.00000000E+00  0.00000000E+00
  0.00000000E+00  0.00000000E+00  0.00000000E+00
  0.00000000E+00  0.00000000E+00  0.00000000E+00
  0.00000000E+00  0.00000000E+00  0.00000000E+00
  0.00000000E+00  0.00000000E+00  0.00000000E+00
  0.00000000E+00  0.00000000E+00  0.00000000E+00
  0.00000000E+00  0.00000000E+00  0.00000000E+00
  0.00000000E+00  0.00000000E+00  0.00000000E+00
  0.00000000E+00  0.00000000E+00  0.00000000E+00
  0.00000000E+00  0.00000000E+00  0.00000000E+00
  0.00000000E+00  0.00000000E+00  0.00000000E+00
  0.00000000E+00  0.00000000E+00  0.00000000E+00
  0.00000000E+00  0.00000000E+00  0.00000000E+00
  0.00000000E+00  0.00000000E+00  0.00000000E+00
  0.00000000E+00  0.00000000E+00  0.00000000E+00
  0.00000000E+00  0.00000000E+00  0.00000000E+00
  0.00000000E+00  0.00000000E+00  0.00000000E+00
  0.00000000E+00  0.00000000E+00  0.00000000E+00
  0.00000000E+00  0.00000000E+00  0.00000000E+00
  0.00000000E+00  0.00000000E+00  0.00000000E+00
  0.00000000E+00  0.00000000E+00  0.00000000E+00
  0.00000000E+00  0.00000000E+00  0.00000000E+00
  0.00000000E+00  0.00000000E+00  0.00000000E+00
  0.00000000E+00  0.00000000E+00  0.00000000E+00
  0.00000000E+00  0.00000000E+00  0.00000000E+00
  0.00000000E+00  0.00000000E+00  0.00000000E+00
  0.00000000E+00  0.00000000E+00  0.00000000E+00
  0.00000000E+00  0.00000000E+00  0.00000000E+00
  0.00000000E+00  0.00000000E+00  0.00000000E+00
  0.00000000E+00  0.00000000E+00  0.00000000E+00
  0.00000000E+00  0.00000000E+00  0.00000000E+00
  0.00000000E+00  0.00000000E+00  0.00000000E+00
  0.00000000E+00  0.00000000E+00  0.00000000E+00
  0.00000000E+00  0.00000000E+00  0.00000000E+00
  0.00000000E+00  0.00000000E+00  0.00000000E+00
  0.00000000E+00  0.00000000E+00  0.00000000E+00
  0.00000000E+00  0.00000000E+00  0.00000000E+00
  0.00000000E+00  0.00000000E+00  0.00000000E+00
  0.00000000E+00  0.00000000E+00  0.00000000E+00
  0.00000000E+00  0.00000000E+00  0.00000000E+00
  0.00000000E+00  0.00000000E+00  0.00000000E+00
  0.00000000E+00  0.00000000E+00  0.00000000E+00
  0.00000000E+00  0.00000000E+00  0.00000000E+00
  0.00000000E+00  0.00000000E+00  0.00000000E+00
  0.00000000E+00  0.00000000E+00  0.00000000E+00
  0.00000000E+00  0.00000000E+00  0.00000000E+00
  0.00000000E+00  0.00000000E+00  0.00000000E+00
  0.00000000E+00  0.00000000E+00  0.00000000E+00
  0.00000000E+00  0.00000000E+00  0.00000000E+00
  0.00000000E+00  0.00000000E+00  0.00000000E+00
  0.00000000E+00  0.00000000E+00  0.00000000E+00
  0.00000000E+00  0.00000000E+00  0.00000000E+00
  0.00000000E+00  0.00000000E+00  0.00000000E+00
  0.00000000E+00  0.00000000E+00  0.00000000E+00
  0.00000000E+00  0.00000000E+00  0.00000000E+00
  0.00000000E+00  0.00000000E+00  0.00000000E+00
  0.00000000E+00  0.00000000E+00  0.00000000E+00
  0.00000000E+00  0.00000000E+00  0.00000000E+00
  0.00000000E+00  0.00000000E+00  0.00000000E+00
  0.00000000E+00  0.00000000E+00  0.00000000E+00
  0.00000000E+00  0.00000000E+00  0.00000000E+00
  0.00000000E+00  0.00000000E+00  0.00000000E+00
  0.00000000E+00  0.00000000E+00  0.00000000E+00
  0.00000000E+00  0.00000000E+00  0.00000000E+00
  0.00000000E+00  0.00000000E+00  0.00000000E+00
  0.00000000E+00  0.00000000E+00  0.00000000E+00
  0.00000000E+00  0.00000000E+00  0.00000000E+00
  0.00000000E+00  0.00000000E+00  0.00000000E+00
  0.00000000E+00  0.00000000E+00  0.00000000E+00
