 W                                      
   1.00000000000000     
     2.7630497480063796    0.0000000000000000    0.0000000000000000
     0.0000000000000000    7.8150796267942582    0.0000000000000000
     0.0000000000000000    0.0000000000000000   67.6805501754385972
   W 
    84
Direct
  0.0000000000000000  0.0000000000000000  0.0081273923698526
  0.6666977490821943  0.3333352127017267  0.0081270855939536
  0.3333004089986766  0.6666634848638960  0.0081270855939536
  0.0000000000000000  0.4999993487828078  0.0397489457281170
  0.3333375579363341  0.1666613478838329  0.0397515528503329
  0.6666598633768830  0.8333386521161662  0.0397515528503329
  0.6666444885308713  0.3333353579612313  0.0729041140048098
  0.3333529327823456  0.6666633396043921  0.0729041140048098
  0.0000000000000000 -0.0000000000000000  0.0729027479617794
  0.0000000000000000  0.4999993487828078  0.1058941193214939
  0.6666579481064433  0.8333311782719890  0.1058915376712657
  0.3333413151259043  0.1666675192936338  0.1058915376712657
  0.0000000000000000  0.0000000000000000  0.1389265530414587
  0.6666760409551524  0.3333319845816303  0.1389253404150498
  0.3333232222771939  0.6666680154183705  0.1389253404150498
  0.3332499626989605  0.1666680143916249  0.1719322613619723
  0.6667478269980801  0.8333319856083754  0.1719322613619723
  0.0000000000000000  0.4999993487828078  0.1719299428188362
  0.6666636708845236  0.3333342168667123  0.2049924618644486
  0.3333344871963392  0.6666657831332877  0.2049924618644486
  0.0000000000000000 -0.0000000000000000  0.2049879133875805
  0.0000000000000000  0.4999993487828078  0.2380680147374144
  0.6666391047370173  0.8333429844559735  0.2380765539581625
  0.3333586849600232  0.1666557131096416  0.2380765539581625
  0.0000000000000000  0.0000000000000000  0.2711293037671232
  0.6666273043147435  0.3333636087402486  0.2711285297324388
  0.3333726956852571  0.6666363912597515  0.2711285297324388
  0.6667560555481075  0.8333281633262383  0.3042156625505409
  0.3332435760680619  0.1666718366737621  0.3042156625505409
  0.0000000000000000  0.4999993487828078  0.3042229072669970
  0.6669501193818244  0.3334803836896148  0.3372970723276780
  0.3330480386990401  0.6665183138760081  0.3372970723276780
  0.0000000000000000  0.0000000000000000  0.3372885020948651
  0.3344815176571823  0.1668830101543952  0.3703973932579768
  0.6655181139589949  0.8331156874112203  0.3703973932579768
  0.0000000000000000  0.4999993487828078  0.3704937157026529
  0.0000000000000000  0.0000000000000000  0.4032305297251758
  0.3331250298124709  0.6662436743272598  0.4034947723758144
  0.6668749701875291  0.3337550232383628  0.4034947723758144
  0.6624878862792688  0.8346356129449281  0.4360852375556570
  0.3375121137207305  0.1653630846206946  0.4360852375556570
  0.0000000000000000  0.4999993487828078  0.4372345221025583
  0.0000000000000000  0.0000000000000000  0.4702847882588643
  0.3375121137207305  0.3346362641621203  0.4714340728057655
  0.6624878862792688  0.6653637358378798  0.4714340728057655
  0.6668749701875291  0.1662443255444522  0.5040260419078350
  0.3331250298124709  0.8337543720211708  0.5040260419078350
  0.0000000000000000  0.4999993487828078  0.5042887806362474
  0.0000000000000000  0.0000000000000000  0.5370255946587691
  0.3344815176571823  0.3331163386284124  0.5371219171034450
  0.6655181139589949  0.6668836613715875  0.5371219171034450
  0.0000000000000000  0.4999993487828078  0.5702308082665575
  0.6669501193818244  0.1665189650931934  0.5702222380337444
  0.3330480386990401  0.8334810349068068  0.5702222380337444
  0.0000000000000000  0.0000000000000000  0.6032964030944257
  0.3332435760680619  0.3333275121090453  0.6033036478108821
  0.6667560555481075  0.6666711854565767  0.6033036478108821
  0.6666273043147435  0.1666357400425663  0.6363907806289834
  0.3333726956852571  0.8333629575230563  0.6363907806289834
  0.0000000000000000  0.4999993487828078  0.6363900065943000
  0.3333586849600232  0.3333436356731665  0.6694427564032601
  0.6666391047370173  0.6666563643268343  0.6694427564032601
  0.0000000000000000  0.0000000000000000  0.6694512956240078
  0.0000000000000000  0.4999993487828078  0.7025313969738421
  0.3333344871963392  0.8333335656495201  0.7025268484969738
  0.6666636708845236  0.1666664343504798  0.7025268484969738
  0.0000000000000000 -0.0000000000000000  0.7355893675425861
  0.3332499626989605  0.3333326368255601  0.7355870489994508
  0.6667478269980801  0.6666673631744395  0.7355870489994508
  0.3333232222771939  0.8333313333644373  0.7685936691619296
  0.6666760409551524  0.1666673642011775  0.7685936691619296
  0.0000000000000000  0.4999993487828078  0.7685935092810814
  0.6666579481064433  0.6666681705108188  0.8016279230823816
  0.3333413151259043  0.3333318294891812  0.8016279230823816
  0.0000000000000000 -0.0000000000000000  0.8016245894710431
  0.0000000000000000  0.4999993487828078  0.8346173143607605
  0.6666444885308713  0.1666639908215769  0.8346151963566123
  0.3333529327823456  0.8333347067440385  0.8346151963566123
  0.6666598633768830  0.6666606966666416  0.8677682086877572
  0.3333375579363341  0.3333380008989824  0.8677682086877572
  0.0000000000000000  0.0000000000000000  0.8677699134566379
  0.6666977490821943  0.1666641360810810  0.8993930669639105
  0.0000000000000000  0.4999993487828078  0.8993914517756759
  0.3333004089986766  0.8333358639189189  0.8993930669639105
 
  0.00000000E+00  0.00000000E+00  0.00000000E+00
  0.00000000E+00  0.00000000E+00  0.00000000E+00
  0.00000000E+00  0.00000000E+00  0.00000000E+00
  0.00000000E+00  0.00000000E+00  0.00000000E+00
  0.00000000E+00  0.00000000E+00  0.00000000E+00
  0.00000000E+00  0.00000000E+00  0.00000000E+00
  0.00000000E+00  0.00000000E+00  0.00000000E+00
  0.00000000E+00  0.00000000E+00  0.00000000E+00
  0.00000000E+00  0.00000000E+00  0.00000000E+00
  0.00000000E+00  0.00000000E+00  0.00000000E+00
  0.00000000E+00  0.00000000E+00  0.00000000E+00
  0.00000000E+00  0.00000000E+00  0.00000000E+00
  0.00000000E+00  0.00000000E+00  0.00000000E+00
  0.00000000E+00  0.00000000E+00  0.00000000E+00
  0.00000000E+00  0.00000000E+00  0.00000000E+00
  0.00000000E+00  0.00000000E+00  0.00000000E+00
  0.00000000E+00  0.00000000E+00  0.00000000E+00
  0.00000000E+00  0.00000000E+00  0.00000000E+00
  0.00000000E+00  0.00000000E+00  0.00000000E+00
  0.00000000E+00  0.00000000E+00  0.00000000E+00
  0.00000000E+00  0.00000000E+00  0.00000000E+00
  0.00000000E+00  0.00000000E+00  0.00000000E+00
  0.00000000E+00  0.00000000E+00  0.00000000E+00
  0.00000000E+00  0.00000000E+00  0.00000000E+00
  0.00000000E+00  0.00000000E+00  0.00000000E+00
  0.00000000E+00  0.00000000E+00  0.00000000E+00
  0.00000000E+00  0.00000000E+00  0.00000000E+00
  0.00000000E+00  0.00000000E+00  0.00000000E+00
  0.00000000E+00  0.00000000E+00  0.00000000E+00
  0.00000000E+00  0.00000000E+00  0.00000000E+00
  0.00000000E+00  0.00000000E+00  0.00000000E+00
  0.00000000E+00  0.00000000E+00  0.00000000E+00
  0.00000000E+00  0.00000000E+00  0.00000000E+00
  0.00000000E+00  0.00000000E+00  0.00000000E+00
  0.00000000E+00  0.00000000E+00  0.00000000E+00
  0.00000000E+00  0.00000000E+00  0.00000000E+00
  0.00000000E+00  0.00000000E+00  0.00000000E+00
  0.00000000E+00  0.00000000E+00  0.00000000E+00
  0.00000000E+00  0.00000000E+00  0.00000000E+00
  0.00000000E+00  0.00000000E+00  0.00000000E+00
  0.00000000E+00  0.00000000E+00  0.00000000E+00
  0.00000000E+00  0.00000000E+00  0.00000000E+00
  0.00000000E+00  0.00000000E+00  0.00000000E+00
  0.00000000E+00  0.00000000E+00  0.00000000E+00
  0.00000000E+00  0.00000000E+00  0.00000000E+00
  0.00000000E+00  0.00000000E+00  0.00000000E+00
  0.00000000E+00  0.00000000E+00  0.00000000E+00
  0.00000000E+00  0.00000000E+00  0.00000000E+00
  0.00000000E+00  0.00000000E+00  0.00000000E+00
  0.00000000E+00  0.00000000E+00  0.00000000E+00
  0.00000000E+00  0.00000000E+00  0.00000000E+00
  0.00000000E+00  0.00000000E+00  0.00000000E+00
  0.00000000E+00  0.00000000E+00  0.00000000E+00
  0.00000000E+00  0.00000000E+00  0.00000000E+00
  0.00000000E+00  0.00000000E+00  0.00000000E+00
  0.00000000E+00  0.00000000E+00  0.00000000E+00
  0.00000000E+00  0.00000000E+00  0.00000000E+00
  0.00000000E+00  0.00000000E+00  0.00000000E+00
  0.00000000E+00  0.00000000E+00  0.00000000E+00
  0.00000000E+00  0.00000000E+00  0.00000000E+00
  0.00000000E+00  0.00000000E+00  0.00000000E+00
  0.00000000E+00  0.00000000E+00  0.00000000E+00
  0.00000000E+00  0.00000000E+00  0.00000000E+00
  0.00000000E+00  0.00000000E+00  0.00000000E+00
  0.00000000E+00  0.00000000E+00  0.00000000E+00
  0.00000000E+00  0.00000000E+00  0.00000000E+00
  0.00000000E+00  0.00000000E+00  0.00000000E+00
  0.00000000E+00  0.00000000E+00  0.00000000E+00
  0.00000000E+00  0.00000000E+00  0.00000000E+00
  0.00000000E+00  0.00000000E+00  0.00000000E+00
  0.00000000E+00  0.00000000E+00  0.00000000E+00
  0.00000000E+00  0.00000000E+00  0.00000000E+00
  0.00000000E+00  0.00000000E+00  0.00000000E+00
  0.00000000E+00  0.00000000E+00  0.00000000E+00
  0.00000000E+00  0.00000000E+00  0.00000000E+00
  0.00000000E+00  0.00000000E+00  0.00000000E+00
  0.00000000E+00  0.00000000E+00  0.00000000E+00
  0.00000000E+00  0.00000000E+00  0.00000000E+00
  0.00000000E+00  0.00000000E+00  0.00000000E+00
  0.00000000E+00  0.00000000E+00  0.00000000E+00
  0.00000000E+00  0.00000000E+00  0.00000000E+00
  0.00000000E+00  0.00000000E+00  0.00000000E+00
  0.00000000E+00  0.00000000E+00  0.00000000E+00
  0.00000000E+00  0.00000000E+00  0.00000000E+00
