 W                                      
   1.00000000000000     
     4.5120332854864431    0.0000000000000000    0.0000000000000000
     2.2560217320574161    4.7857366028708128    0.0000000000000000
     0.0000000000000000    0.0000000000000000   67.6805501754385972
   W 
    72
Direct
  0.9890718330545055  0.0218562991287437  0.0115466272983702
  0.7263153655970370  0.5473680352049306  0.0209978758511412
  0.4382965516802695  0.1234088773312312  0.0300106805235632
  0.1594055238758370  0.6811896840345407  0.0407517557962456
  0.8776786056291572  0.2446422507166291  0.0528937983459688
  0.6013037815450164  0.7973906445806881  0.0636067005538348
  0.3250998455853813  0.3498017821607528  0.0745466259527671
  0.0483996902343671  0.9032008459234331  0.0853529600453254
  0.7696836254615155  0.4606317192649225  0.0966466731124526
  0.4917882049591232  0.0164258176913953  0.1074757191271799
  0.2138211546961932  0.5723586626665197  0.1183929847612631
  0.9361697623562366  0.1276601956998111  0.1294081252939967
  0.6584885360618115  0.6830213934043582  0.1405427035618889
  0.3806937691310967  0.2386141857439962  0.1514856350347861
  0.1026865215948666  0.7946274275054162  0.1624977210821487
  0.8245069658747414  0.3509852866853617  0.1734727219741481
  0.5462770232465946  0.9074439157998124  0.1845587927381063
  0.2683597544685425  0.4632817116038241  0.1955047931541616
  0.9903652695598580  0.0192694264231972  0.2065653111646227
  0.7125642025704372  0.5748703065228969  0.2175108497065353
  0.4344595619240205  0.1310828432232574  0.2286282502630044
  0.1565564480599535  0.6868878171173628  0.2395924573567527
  0.8784267910080333  0.2431458760389485  0.2506253484304656
  0.6006748111187183  0.7986485824345518  0.2615560828341278
  0.3223823972391156  0.3552366655725154  0.2727159233678320
  0.0445195116765298  0.9109611829691954  0.2836769339023575
  0.7667645545512605  0.4664698395089494  0.2947188468514988
  0.4887888635698353  0.0224244792341652  0.3055987891043258
  0.2101544196458471  0.5796921089069098  0.3169393038221796
  0.9324590426379668  0.1350816113129955  0.3277250617348248
  0.6552996629923759  0.6893991184417507  0.3387526513373429
  0.3782916348785455  0.2434184329077347  0.3495400131733344
  0.0976361678726010  0.8047281026212260  0.3610264494076343
  0.8224024358343514  0.3551943312447177  0.3721744666437767
  0.5362312517314548  0.9275353926996874  0.3820514428431994
  0.2646779740997465  0.4706452301433001  0.3926402851325433
  0.6988904278725598  0.6022177790743863  0.4127303507683602
  0.9783620628506537  0.0432757700085972  0.4173662825773360
  0.2537670368646601  0.4924670781094893  0.4333398456603079
  0.5268178777150629  0.9463621139214202  0.4431179933885107
  0.8109293479766840  0.3781404634472768  0.4542910335205698
  0.0860842052966972  0.8278319831855253  0.4650783826653847
  0.3659386927950161  0.2681242643643022  0.4764185539533868
  0.6422855613394121  0.7154272604440270  0.4870624061564147
  0.9197730700440357  0.1604534950355143  0.4982886097062722
  0.1968167996207546  0.6063672877973847  0.5091245892709624
  0.4750716312861837  0.0498588798196030  0.5204242929869576
  0.7523306970336072  0.4953374866673942  0.5312500987282334
  0.0302416878175627  0.9395167601378108  0.5423703582716917
  0.3079284001664385  0.3841445861553948  0.5532857856924940
  0.5861221182813029  0.8277538903247218  0.5644437509697878
  0.8634573462448244  0.2730846852473706  0.5753373334005385
  0.1413130514769852  0.7173745285403033  0.5864357159876392
  0.4187613648720971  0.1624791533904850  0.5973941675127122
  0.6967378365098992  0.6065229512537668  0.6085016351375597
  0.9743955504508774  0.0512087756258773  0.6194104716057867
  0.2524079897885375  0.4951851515680929  0.6304999292726781
  0.5303784192761852  0.9392410322097801  0.6414740810079054
  0.8082684353473637  0.3834622528602857  0.6525121231373695
  0.0858497514769418  0.8283008729957773  0.6634339658994391
  0.3633336621176275  0.2733343052029690  0.6745722465478207
  0.6408341345989088  0.7183300997518445  0.6855819484018826
  0.9187022117038397  0.1625952012189019  0.6965087032898785
  0.1964883631645369  0.6070241525052819  0.7073277081791909
  0.4750593822707631  0.0498833700364706  0.7186226685026754
  0.7516314913746115  0.4967358868636861  0.7294289464154395
  0.0277960242418112  0.9444080672769631  0.7403762869927735
  0.3041416478306950  0.3917180741155631  0.7510777007194188
  0.5857906398991918  0.8284168476215172  0.7632221787282607
  0.8646500459484224  0.2706992844007640  0.7739616887570102
  0.1526524056766641  0.6946958626173606  0.7829767900848085
  0.4152895285359375  0.1694228159755556  0.7924299569478717
 
  0.00000000E+00  0.00000000E+00  0.00000000E+00
  0.00000000E+00  0.00000000E+00  0.00000000E+00
  0.00000000E+00  0.00000000E+00  0.00000000E+00
  0.00000000E+00  0.00000000E+00  0.00000000E+00
  0.00000000E+00  0.00000000E+00  0.00000000E+00
  0.00000000E+00  0.00000000E+00  0.00000000E+00
  0.00000000E+00  0.00000000E+00  0.00000000E+00
  0.00000000E+00  0.00000000E+00  0.00000000E+00
  0.00000000E+00  0.00000000E+00  0.00000000E+00
  0.00000000E+00  0.00000000E+00  0.00000000E+00
  0.00000000E+00  0.00000000E+00  0.00000000E+00
  0.00000000E+00  0.00000000E+00  0.00000000E+00
  0.00000000E+00  0.00000000E+00  0.00000000E+00
  0.00000000E+00  0.00000000E+00  0.00000000E+00
  0.00000000E+00  0.00000000E+00  0.00000000E+00
  0.00000000E+00  0.00000000E+00  0.00000000E+00
  0.00000000E+00  0.00000000E+00  0.00000000E+00
  0.00000000E+00  0.00000000E+00  0.00000000E+00
  0.00000000E+00  0.00000000E+00  0.00000000E+00
  0.00000000E+00  0.00000000E+00  0.00000000E+00
  0.00000000E+00  0.00000000E+00  0.00000000E+00
  0.00000000E+00  0.00000000E+00  0.00000000E+00
  0.00000000E+00  0.00000000E+00  0.00000000E+00
  0.00000000E+00  0.00000000E+00  0.00000000E+00
  0.00000000E+00  0.00000000E+00  0.00000000E+00
  0.00000000E+00  0.00000000E+00  0.00000000E+00
  0.00000000E+00  0.00000000E+00  0.00000000E+00
  0.00000000E+00  0.00000000E+00  0.00000000E+00
  0.00000000E+00  0.00000000E+00  0.00000000E+00
  0.00000000E+00  0.00000000E+00  0.00000000E+00
  0.00000000E+00  0.00000000E+00  0.00000000E+00
  0.00000000E+00  0.00000000E+00  0.00000000E+00
  0.00000000E+00  0.00000000E+00  0.00000000E+00
  0.00000000E+00  0.00000000E+00  0.00000000E+00
  0.00000000E+00  0.00000000E+00  0.00000000E+00
  0.00000000E+00  0.00000000E+00  0.00000000E+00
  0.00000000E+00  0.00000000E+00  0.00000000E+00
  0.00000000E+00  0.00000000E+00  0.00000000E+00
  0.00000000E+00  0.00000000E+00  0.00000000E+00
  0.00000000E+00  0.00000000E+00  0.00000000E+00
  0.00000000E+00  0.00000000E+00  0.00000000E+00
  0.00000000E+00  0.00000000E+00  0.00000000E+00
  0.00000000E+00  0.00000000E+00  0.00000000E+00
  0.00000000E+00  0.00000000E+00  0.00000000E+00
  0.00000000E+00  0.00000000E+00  0.00000000E+00
  0.00000000E+00  0.00000000E+00  0.00000000E+00
  0.00000000E+00  0.00000000E+00  0.00000000E+00
  0.00000000E+00  0.00000000E+00  0.00000000E+00
  0.00000000E+00  0.00000000E+00  0.00000000E+00
  0.00000000E+00  0.00000000E+00  0.00000000E+00
  0.00000000E+00  0.00000000E+00  0.00000000E+00
  0.00000000E+00  0.00000000E+00  0.00000000E+00
  0.00000000E+00  0.00000000E+00  0.00000000E+00
  0.00000000E+00  0.00000000E+00  0.00000000E+00
  0.00000000E+00  0.00000000E+00  0.00000000E+00
  0.00000000E+00  0.00000000E+00  0.00000000E+00
  0.00000000E+00  0.00000000E+00  0.00000000E+00
  0.00000000E+00  0.00000000E+00  0.00000000E+00
  0.00000000E+00  0.00000000E+00  0.00000000E+00
  0.00000000E+00  0.00000000E+00  0.00000000E+00
  0.00000000E+00  0.00000000E+00  0.00000000E+00
  0.00000000E+00  0.00000000E+00  0.00000000E+00
  0.00000000E+00  0.00000000E+00  0.00000000E+00
  0.00000000E+00  0.00000000E+00  0.00000000E+00
  0.00000000E+00  0.00000000E+00  0.00000000E+00
  0.00000000E+00  0.00000000E+00  0.00000000E+00
  0.00000000E+00  0.00000000E+00  0.00000000E+00
  0.00000000E+00  0.00000000E+00  0.00000000E+00
  0.00000000E+00  0.00000000E+00  0.00000000E+00
  0.00000000E+00  0.00000000E+00  0.00000000E+00
  0.00000000E+00  0.00000000E+00  0.00000000E+00
  0.00000000E+00  0.00000000E+00  0.00000000E+00
