 W                                      
   1.00000000000000     
     7.8150796267942582    0.0000000000000000    0.0000000000000000
     0.0000000000000000    5.2908306794258371    0.0000000000000000
     0.0000000000000000    0.0000000000000000   77.7590208612440250
   W 
   156
Direct
  0.9939359046890860  0.5360995352544712  0.0084821053260049
  0.8407616595461922  0.9759111427314858  0.0127142289393022
  0.6789573797803368  0.4395655909185920  0.0169472370724003
  0.5146313499229417  0.8953815515313791  0.0216191260576519
  0.3463365252794872  0.3558428766085265  0.0262292874534895
  0.1751226283581686  0.8101822955375509  0.0302158444162043
  0.0098432716084396  0.2641504935438958  0.0353860572870824
  0.8402136453317876  0.7209536558823066  0.0411516881117806
  0.6745038103658532  0.1747367433766041  0.0458359400082412
  0.5053230805863458  0.6299178591117668  0.0505675353993937
  0.3392550741138851  0.0861894017214295  0.0554417080084878
  0.1730170707511533  0.5424015671251651  0.0606464589565509
  0.0081195904974621  0.9943648963018654  0.0659018715993447
  0.8410083778242807  0.4468475738866835  0.0708165628017272
  0.6736253548350964  0.9005988529722728  0.0758911879707234
  0.5071822566675865  0.3553578207164436  0.0806900180806136
  0.3417818174917751  0.8103878312896441  0.0856612090034342
  0.1753515148964658  0.2653556968586760  0.0907327990549210
  0.0080069654535936  0.7201738927393861  0.0957423996670616
  0.8413118485633394  0.1754836603057310  0.1007253482621129
  0.6749957231022210  0.6301523294829007  0.1057409218186114
  0.5083104734856144  0.0849078353953968  0.1107538821581067
  0.3417669128583197  0.5392752850778747  0.1156886115234475
  0.1748616457808810  0.9937228471099110  0.1206904806615207
  0.0085578955431356  0.4477462236246251  0.1257477916828451
  0.8418478787328192  0.9020374741999619  0.1307375372214042
  0.6749507373905951  0.3567325100609396  0.1357519995946822
  0.5081479365781743  0.8113963973972784  0.1407369131239195
  0.3417527719109943  0.2660072142433655  0.1457754541389179
  0.1751283726737272  0.7206053671486433  0.1507557534940402
  0.0084836615721079  0.1753971828063940  0.1557583798462158
  0.8416904822007555  0.6302018326998214  0.1607737618489472
  0.6752683032221463  0.0847694357923625  0.1657585408644037
  0.5084886017593875  0.5394773447354292  0.1707631061737649
  0.3418802930656772  0.9939676656789668  0.1757700009413369
  0.1751752746946189  0.4486246874921892  0.1807721615031146
  0.0086478171059594  0.9031186789894533  0.1857928708876323
  0.8420064574547754  0.3576399774780648  0.1907941072486736
  0.6753766721001944  0.8122287657480708  0.1958191517831827
  0.5087670004690384  0.2666999899779110  0.2008111674017898
  0.3421671884189796  0.7212680341575370  0.2058282811860624
  0.1755222537431323  0.1757953471459189  0.2108337622069549
  0.0089566047667164  0.6302802972270604  0.2158329176467594
  0.8423143735088260  0.0849216021435653  0.2208476210616137
  0.6757906191941836  0.5395705406541395  0.2258519448430314
  0.5091437505648222  0.9942784803400682  0.2308639951678284
  0.3425645399967075  0.4488085833010733  0.2358625103762436
  0.1759335494468054  0.9034228726727889  0.2408870962860354
  0.0093509114399381  0.3579667638630066  0.2458928927186882
  0.8427604615029857  0.8123905280038956  0.2508864814309033
  0.6761180504610927  0.2668344987721054  0.2559141848843451
  0.5095265839676237  0.7213772953563236  0.2609156458111675
  0.3428988985400694  0.1760510742165562  0.2659288946466685
  0.1763114798502011  0.6306567115471899  0.2709339556498810
  0.0096682450500301  0.0851804930158220  0.2759609168607365
  0.8431228787216545  0.5397280456924241  0.2809641150627595
  0.6765914757639350  0.9943151286748728  0.2859605483623324
  0.5100391455462916  0.4490132855548890  0.2909715849432172
  0.3434647106058896  0.9036697954013349  0.2959623570202854
  0.1765837684713792  0.3581155310783685  0.3009813458642182
  0.0098009427583160  0.8125933414665343  0.3060207957772054
  0.8432011609127078  0.2670542277352302  0.3110662987760204
  0.6771454046506122  0.7214468211918942  0.3160690545787835
  0.5108397118150280  0.1763502455121111  0.3210529963402308
  0.3443193675675891  0.6312676378960861  0.3260277320318370
  0.1773884399787989  0.0855858200008584  0.3309732126100262
  0.0107608013946477  0.5396751743745196  0.3360793958201714
  0.8438980053049820  0.9945059095080575  0.3413024655297076
  0.6774940134214160  0.4496285777857975  0.3462930666615238
  0.5118154435156187  0.9039082433785215  0.3511137108008660
  0.3459259774946196  0.3583920862594763  0.3559336180041603
  0.1787843847438543  0.8128118583708484  0.3608503005912864
  0.0106093670782734  0.2649920286543960  0.3659219288870638
  0.8439178124894934  0.7178904146536499  0.3713030939153405
  0.6770200542334552  0.1764300502591856  0.3767268372771870
  0.5119630376335207  0.6376058142780624  0.3814842455298454
  0.3458808407080538  0.0945738235750337  0.3857140200798357
  0.1816521539385346  0.5470930783365049  0.3901826429762165
  0.0153626146076178  0.9865712633844143  0.3958272964573481
  0.8442225493199514  0.4203567012874985  0.4015687410229374
  0.6754118096757044  0.8847553934408083  0.4070358938499964
  0.4944325140201182  0.3802837216186900  0.4123805746122289
  0.3223785533169018  0.9059949239880596  0.4177898893655836
  0.1523378788452231  0.4654743727287185  0.4234402389048810
  0.9838391347663737  0.0307560815486860  0.4292848118484626
  0.8201878857587567  0.5806008005349498  0.4340153743199143
  0.6540263871209087  0.1248964635012669  0.4382642048422102
  0.4890671347871180  0.6644747631279899  0.4427656896329400
  0.3225147602351999  0.2044493545624074  0.4480656977972094
  0.1559250830804118  0.7501236491990334  0.4535220868319421
  0.9880976931497967  0.2983156991130534  0.4586910352437156
  0.8203745868864144  0.8442763661511589  0.4636246721753731
  0.6542645479900910  0.3897913891009203  0.4684752424642613
  0.4885624207960516  0.9355493514642604  0.4732855191968418
  0.3225148648249487  0.4806698613564030  0.4781974022651087
  0.1555732086661176  0.0254865226343726  0.4833851596534377
  0.9889195864688943  0.5711579099886620  0.4885360628320293
  0.8220315206366019  0.1169479286147712  0.4935148567899891
  0.6553725583587353  0.6620337121059684  0.4984652214215320
  0.4890178042630874  0.2070174538504928  0.5034505105696824
  0.3229418834683369  0.7524020318909824  0.5084399954939357
  0.1565472649552017  0.2979435395707808  0.5134799837138243
  0.9897538034182128  0.8434386672954254  0.5185298113810984
  0.8229074979454272  0.3890692504175984  0.5235559895258273
  0.6561976723171291  0.9345285803575921  0.5285527571624552
  0.4897002696663998  0.4799584513458175  0.5335618963468645
  0.3230490500067560  0.0254074500533168  0.5385638201176532
  0.1565164515160336  0.5709390786248992  0.5435593950761075
  0.9898860879930050  0.1163269540575881  0.5485731808339869
  0.8232857166607689  0.6615961292743229  0.5535894424135168
  0.6566366692744516  0.2068110308424014  0.5585878644949178
  0.4900235756497245  0.7520542914247494  0.5635880694114512
  0.3234435072499138  0.2974386978571821  0.5686066496892194
  0.1567817537361741  0.8429000399662954  0.5736054070334126
  0.9901691796714250  0.3884386141060105  0.5786023769443954
  0.8235109554285913  0.9339650423628820  0.5836251555712773
  0.6569430486050283  0.4794398267138589  0.5886402263450119
  0.4902585834223133  0.0248982387305341  0.5936386402475928
  0.3236626773436784  0.5701900746967733  0.5986619129676402
  0.1570421447369990  0.1156542384127572  0.6036726078277419
  0.9905453837273356  0.6612526938906254  0.6086871985765557
  0.8238016744056652  0.2066321343115202  0.6136880766633336
  0.6571863178652885  0.7521060672328291  0.6186980671195504
  0.4903949895228842  0.2974174132042441  0.6236942129080837
  0.3239543486136719  0.8428703908698092  0.6286822529050170
  0.1571523103753776  0.3880037955187417  0.6336952707721302
  0.9904811694098374  0.9331604349319350  0.6387003905021461
  0.8238830829575865  0.4785263183250742  0.6436757918365844
  0.6574870090549393  0.0239474148847518  0.6487159689648948
  0.4906855284192351  0.5693292029514927  0.6537071896907428
  0.3237551520352163  0.1147083558976584  0.6587135578588778
  0.1570252270287572  0.6604378323432695  0.6637024900317936
  0.9907444387049597  0.2064567098652878  0.6687629851102200
  0.8238136729343468  0.7520437042712813  0.6737679818956701
  0.6572543522575139  0.2976896939455825  0.6787033944017670
  0.4905667193957743  0.8428882637251448  0.6837163919123812
  0.3242898873876596  0.3881715379068646  0.6887379160046712
  0.1575859814848796  0.9328764114297422  0.6937183152034077
  0.9902198725736426  0.4780633008186265  0.6987250568434505
  0.8237629004566325  0.0231014575414670  0.7037954883843146
  0.6583779467970716  0.5680845470600850  0.7087680250653633
  0.4919148872785644  0.1133750175122928  0.7135680497518571
  0.3245132791872083  0.6596462166690577  0.7186400144708613
  0.1573764886276505  0.2071358192454948  0.7235562997181976
  0.9924937169241664  0.7551320819146996  0.7288090715587997
  0.8262614438787541  0.2989460742659207  0.7340163560337744
  0.6601621592225354  0.8426601590332617  0.7388926275915394
  0.4909711226112410  0.3874789235526288  0.7436216493029690
  0.3252722741252583  0.9336919201048088  0.7483077525550427
  0.1556521205105606  0.4768765376990279  0.7540744234859089
  0.9903517825563194  0.0229018229083028  0.7592432758613910
  0.8190811018404106  0.5685986526127726  0.7632286698363471
  0.6508601504295654  0.1081413557646154  0.7678421675402544
  0.4865018172133215  0.6522556627258222  0.7725200491114712
  0.3247326163394076  0.1885974556383624  0.7767464585867211
  0.1715018988526210  0.7487984333859143  0.7809778257563725
 
  0.00000000E+00  0.00000000E+00  0.00000000E+00
  0.00000000E+00  0.00000000E+00  0.00000000E+00
  0.00000000E+00  0.00000000E+00  0.00000000E+00
  0.00000000E+00  0.00000000E+00  0.00000000E+00
  0.00000000E+00  0.00000000E+00  0.00000000E+00
  0.00000000E+00  0.00000000E+00  0.00000000E+00
  0.00000000E+00  0.00000000E+00  0.00000000E+00
  0.00000000E+00  0.00000000E+00  0.00000000E+00
  0.00000000E+00  0.00000000E+00  0.00000000E+00
  0.00000000E+00  0.00000000E+00  0.00000000E+00
  0.00000000E+00  0.00000000E+00  0.00000000E+00
  0.00000000E+00  0.00000000E+00  0.00000000E+00
  0.00000000E+00  0.00000000E+00  0.00000000E+00
  0.00000000E+00  0.00000000E+00  0.00000000E+00
  0.00000000E+00  0.00000000E+00  0.00000000E+00
  0.00000000E+00  0.00000000E+00  0.00000000E+00
  0.00000000E+00  0.00000000E+00  0.00000000E+00
  0.00000000E+00  0.00000000E+00  0.00000000E+00
  0.00000000E+00  0.00000000E+00  0.00000000E+00
  0.00000000E+00  0.00000000E+00  0.00000000E+00
  0.00000000E+00  0.00000000E+00  0.00000000E+00
  0.00000000E+00  0.00000000E+00  0.00000000E+00
  0.00000000E+00  0.00000000E+00  0.00000000E+00
  0.00000000E+00  0.00000000E+00  0.00000000E+00
  0.00000000E+00  0.00000000E+00  0.00000000E+00
  0.00000000E+00  0.00000000E+00  0.00000000E+00
  0.00000000E+00  0.00000000E+00  0.00000000E+00
  0.00000000E+00  0.00000000E+00  0.00000000E+00
  0.00000000E+00  0.00000000E+00  0.00000000E+00
  0.00000000E+00  0.00000000E+00  0.00000000E+00
  0.00000000E+00  0.00000000E+00  0.00000000E+00
  0.00000000E+00  0.00000000E+00  0.00000000E+00
  0.00000000E+00  0.00000000E+00  0.00000000E+00
  0.00000000E+00  0.00000000E+00  0.00000000E+00
  0.00000000E+00  0.00000000E+00  0.00000000E+00
  0.00000000E+00  0.00000000E+00  0.00000000E+00
  0.00000000E+00  0.00000000E+00  0.00000000E+00
  0.00000000E+00  0.00000000E+00  0.00000000E+00
  0.00000000E+00  0.00000000E+00  0.00000000E+00
  0.00000000E+00  0.00000000E+00  0.00000000E+00
  0.00000000E+00  0.00000000E+00  0.00000000E+00
  0.00000000E+00  0.00000000E+00  0.00000000E+00
  0.00000000E+00  0.00000000E+00  0.00000000E+00
  0.00000000E+00  0.00000000E+00  0.00000000E+00
  0.00000000E+00  0.00000000E+00  0.00000000E+00
  0.00000000E+00  0.00000000E+00  0.00000000E+00
  0.00000000E+00  0.00000000E+00  0.00000000E+00
  0.00000000E+00  0.00000000E+00  0.00000000E+00
  0.00000000E+00  0.00000000E+00  0.00000000E+00
  0.00000000E+00  0.00000000E+00  0.00000000E+00
  0.00000000E+00  0.00000000E+00  0.00000000E+00
  0.00000000E+00  0.00000000E+00  0.00000000E+00
  0.00000000E+00  0.00000000E+00  0.00000000E+00
  0.00000000E+00  0.00000000E+00  0.00000000E+00
  0.00000000E+00  0.00000000E+00  0.00000000E+00
  0.00000000E+00  0.00000000E+00  0.00000000E+00
  0.00000000E+00  0.00000000E+00  0.00000000E+00
  0.00000000E+00  0.00000000E+00  0.00000000E+00
  0.00000000E+00  0.00000000E+00  0.00000000E+00
  0.00000000E+00  0.00000000E+00  0.00000000E+00
  0.00000000E+00  0.00000000E+00  0.00000000E+00
  0.00000000E+00  0.00000000E+00  0.00000000E+00
  0.00000000E+00  0.00000000E+00  0.00000000E+00
  0.00000000E+00  0.00000000E+00  0.00000000E+00
  0.00000000E+00  0.00000000E+00  0.00000000E+00
  0.00000000E+00  0.00000000E+00  0.00000000E+00
  0.00000000E+00  0.00000000E+00  0.00000000E+00
  0.00000000E+00  0.00000000E+00  0.00000000E+00
  0.00000000E+00  0.00000000E+00  0.00000000E+00
  0.00000000E+00  0.00000000E+00  0.00000000E+00
  0.00000000E+00  0.00000000E+00  0.00000000E+00
  0.00000000E+00  0.00000000E+00  0.00000000E+00
  0.00000000E+00  0.00000000E+00  0.00000000E+00
  0.00000000E+00  0.00000000E+00  0.00000000E+00
  0.00000000E+00  0.00000000E+00  0.00000000E+00
  0.00000000E+00  0.00000000E+00  0.00000000E+00
  0.00000000E+00  0.00000000E+00  0.00000000E+00
  0.00000000E+00  0.00000000E+00  0.00000000E+00
  0.00000000E+00  0.00000000E+00  0.00000000E+00
  0.00000000E+00  0.00000000E+00  0.00000000E+00
  0.00000000E+00  0.00000000E+00  0.00000000E+00
  0.00000000E+00  0.00000000E+00  0.00000000E+00
  0.00000000E+00  0.00000000E+00  0.00000000E+00
  0.00000000E+00  0.00000000E+00  0.00000000E+00
  0.00000000E+00  0.00000000E+00  0.00000000E+00
  0.00000000E+00  0.00000000E+00  0.00000000E+00
  0.00000000E+00  0.00000000E+00  0.00000000E+00
  0.00000000E+00  0.00000000E+00  0.00000000E+00
  0.00000000E+00  0.00000000E+00  0.00000000E+00
  0.00000000E+00  0.00000000E+00  0.00000000E+00
  0.00000000E+00  0.00000000E+00  0.00000000E+00
  0.00000000E+00  0.00000000E+00  0.00000000E+00
  0.00000000E+00  0.00000000E+00  0.00000000E+00
  0.00000000E+00  0.00000000E+00  0.00000000E+00
  0.00000000E+00  0.00000000E+00  0.00000000E+00
  0.00000000E+00  0.00000000E+00  0.00000000E+00
  0.00000000E+00  0.00000000E+00  0.00000000E+00
  0.00000000E+00  0.00000000E+00  0.00000000E+00
  0.00000000E+00  0.00000000E+00  0.00000000E+00
  0.00000000E+00  0.00000000E+00  0.00000000E+00
  0.00000000E+00  0.00000000E+00  0.00000000E+00
  0.00000000E+00  0.00000000E+00  0.00000000E+00
  0.00000000E+00  0.00000000E+00  0.00000000E+00
  0.00000000E+00  0.00000000E+00  0.00000000E+00
  0.00000000E+00  0.00000000E+00  0.00000000E+00
  0.00000000E+00  0.00000000E+00  0.00000000E+00
  0.00000000E+00  0.00000000E+00  0.00000000E+00
  0.00000000E+00  0.00000000E+00  0.00000000E+00
  0.00000000E+00  0.00000000E+00  0.00000000E+00
  0.00000000E+00  0.00000000E+00  0.00000000E+00
  0.00000000E+00  0.00000000E+00  0.00000000E+00
  0.00000000E+00  0.00000000E+00  0.00000000E+00
  0.00000000E+00  0.00000000E+00  0.00000000E+00
  0.00000000E+00  0.00000000E+00  0.00000000E+00
  0.00000000E+00  0.00000000E+00  0.00000000E+00
  0.00000000E+00  0.00000000E+00  0.00000000E+00
  0.00000000E+00  0.00000000E+00  0.00000000E+00
  0.00000000E+00  0.00000000E+00  0.00000000E+00
  0.00000000E+00  0.00000000E+00  0.00000000E+00
  0.00000000E+00  0.00000000E+00  0.00000000E+00
  0.00000000E+00  0.00000000E+00  0.00000000E+00
  0.00000000E+00  0.00000000E+00  0.00000000E+00
  0.00000000E+00  0.00000000E+00  0.00000000E+00
  0.00000000E+00  0.00000000E+00  0.00000000E+00
  0.00000000E+00  0.00000000E+00  0.00000000E+00
  0.00000000E+00  0.00000000E+00  0.00000000E+00
  0.00000000E+00  0.00000000E+00  0.00000000E+00
  0.00000000E+00  0.00000000E+00  0.00000000E+00
  0.00000000E+00  0.00000000E+00  0.00000000E+00
  0.00000000E+00  0.00000000E+00  0.00000000E+00
  0.00000000E+00  0.00000000E+00  0.00000000E+00
  0.00000000E+00  0.00000000E+00  0.00000000E+00
  0.00000000E+00  0.00000000E+00  0.00000000E+00
  0.00000000E+00  0.00000000E+00  0.00000000E+00
  0.00000000E+00  0.00000000E+00  0.00000000E+00
  0.00000000E+00  0.00000000E+00  0.00000000E+00
  0.00000000E+00  0.00000000E+00  0.00000000E+00
  0.00000000E+00  0.00000000E+00  0.00000000E+00
  0.00000000E+00  0.00000000E+00  0.00000000E+00
  0.00000000E+00  0.00000000E+00  0.00000000E+00
  0.00000000E+00  0.00000000E+00  0.00000000E+00
  0.00000000E+00  0.00000000E+00  0.00000000E+00
  0.00000000E+00  0.00000000E+00  0.00000000E+00
  0.00000000E+00  0.00000000E+00  0.00000000E+00
  0.00000000E+00  0.00000000E+00  0.00000000E+00
  0.00000000E+00  0.00000000E+00  0.00000000E+00
  0.00000000E+00  0.00000000E+00  0.00000000E+00
  0.00000000E+00  0.00000000E+00  0.00000000E+00
  0.00000000E+00  0.00000000E+00  0.00000000E+00
  0.00000000E+00  0.00000000E+00  0.00000000E+00
  0.00000000E+00  0.00000000E+00  0.00000000E+00
  0.00000000E+00  0.00000000E+00  0.00000000E+00
  0.00000000E+00  0.00000000E+00  0.00000000E+00
  0.00000000E+00  0.00000000E+00  0.00000000E+00
  0.00000000E+00  0.00000000E+00  0.00000000E+00
  0.00000000E+00  0.00000000E+00  0.00000000E+00
