 W                                      
   1.00000000000000     
     9.5714762593301419    0.0000000000000000    0.0000000000000000
     0.5317488507177034    6.9331523700159492    0.0000000000000000
     0.0000000000000000    0.0000000000000000   83.1978691547049323
   W 
   250
Direct
  0.1517321412996786  0.3360894513024511  0.0087121153368158
  0.5090103686027818  0.8740480942170765  0.0114869059589899
  0.8753416142886027  0.4138715802213749  0.0138043030144983
  0.2326944966468035  0.9635534247417777  0.0160693383074269
  0.5933709015544065  0.5059027765786530  0.0185149950837720
  0.9515082753537779  0.0452666416995963  0.0213561453640926
  0.3100141722805802  0.5825750641137694  0.0232818265967582
  0.6702934505563246  0.1266986370592008  0.0260335983405812
  0.0312004764266375  0.6722547878840488  0.0282524267400848
  0.3915742946210184  0.2147607377280898  0.0306671911735742
  0.7512316284592518  0.7543989372517951  0.0332248790705183
  0.1076015175929489  0.2923758553204274  0.0376739180591488
  0.4665045843916911  0.8351753183728584  0.0404176016489950
  0.8264378399077690  0.3774597876066539  0.0432854955612576
  0.1855817782384439  0.9172384637091785  0.0461178477863142
  0.5443733533417172  0.4595968567295035  0.0487584429619828
  0.9023696088538051  0.9998255390880282  0.0519202585288688
  0.2619554671262511  0.5409316754284726  0.0548395726138189
  0.6204666374001112  0.0820392254502887  0.0575712981140835
  0.9791045180129355  0.6238323134297120  0.0605416232972465
  0.3377813280968762  0.1650187665229229  0.0635237133792131
  0.6965799413236329  0.7059103000182673  0.0663637132669407
  0.0547026689341140  0.2459356004278949  0.0698009108938436
  0.4140400502698070  0.7877686760316938  0.0726321903572783
  0.7724943650034083  0.3294529411296651  0.0755137090107733
  0.1313106529520914  0.8700570306477180  0.0783936813998779
  0.4905661650135183  0.4114527118921460  0.0811705144806743
  0.8484492912146320  0.9522439134613302  0.0840565348305473
  0.2076524717406681  0.4937133271305906  0.0869739130400688
  0.5665936157175309  0.0345030999730444  0.0898385787604207
  0.9252354490040220  0.5766918924120753  0.0927807018712316
  0.2849864243715245  0.1179080545227572  0.0957211494656341
  0.6436670197325864  0.6591968505645254  0.0986049909355373
  0.0025774013878450  0.2002011862822659  0.1014762200735598
  0.3615142776408135  0.7411376112912140  0.1043729380344258
  0.7203173284811054  0.2826664123066611  0.1072802794172495
  0.0790531568725402  0.8239843732970406  0.1101849221597093
  0.4379525553829761  0.3649765361473187  0.1130548642275040
  0.7968020545149165  0.9064160183949399  0.1160175988643657
  0.1555248510800752  0.4474245658175254  0.1189479735350965
  0.5144931189294218  0.9885268569656184  0.1218399624199279
  0.8733180532184589  0.5293276885464858  0.1247497184339267
  0.2319637819253015  0.0704188354940376  0.1276823172287343
  0.5907789421397838  0.6116897971633075  0.1305872884647709
  0.9494713630698884  0.1528702495646850  0.1335536731728598
  0.3084379307057540  0.6939143784869765  0.1364487454470342
  0.6670359224677167  0.2351840965905898  0.1393761802646617
  0.0259911842631793  0.7762307355299934  0.1423177632743569
  0.3848064169135589  0.3173783221841471  0.1452097978735092
  0.7436661217206229  0.8583944562542809  0.1481029900237064
  0.1026143819993488  0.3995501282462837  0.1510275717774179
  0.4613317390925821  0.9407069680784732  0.1539389250780087
  0.8201563427112878  0.4820250993743004  0.1568506647007630
  0.1790381724951111  0.0230335059622787  0.1597552873367017
  0.5379228450146036  0.5643957922726435  0.1626832515835999
  0.8967579640877595  0.1055268713561450  0.1655934853318293
  0.2556445521803641  0.6465619712145676  0.1685155750294636
  0.6145687885549056  0.1877728928309365  0.1714225500939680
  0.9733357309741646  0.7289714196170908  0.1743196795385180
  0.3322950520290032  0.2701100990646994  0.1772393690154806
  0.6910560158736089  0.8111786712228422  0.1801674725409204
  0.0498346835937808  0.3522596085795780  0.1830559574034502
  0.4087093991761337  0.8935033774966101  0.1859787259456246
  0.7675275624428368  0.4345715844591015  0.1889018942559108
  0.1263594337156450  0.9757939504012495  0.1918084562540656
  0.4851808758009401  0.5168525302877464  0.1947284752846317
  0.8440251001938479  0.0578723682559299  0.1976590836542894
  0.2028173283105024  0.5991153269145397  0.2005589457298828
  0.5616775742620016  0.1401270638240925  0.2034914475108918
  0.9205231337005462  0.6812588678776181  0.2064175798958549
  0.2792718266304315  0.2223649014234609  0.2093204326205144
  0.6381248706913680  0.7635230325368952  0.2122378530909630
  0.9969275316680033  0.3046302275762616  0.2151610762931851
  0.3557318173355526  0.8457192272233666  0.2180655830416553
  0.7144843482043705  0.3869068544815416  0.2209821370640401
  0.0734033264962744  0.9279234054523587  0.2239060305545790
  0.4322606871213421  0.4690674398272690  0.2268039649165212
  0.7910869664681964  0.0102581272020983  0.2297408569035662
  0.1499817740220903  0.5513232891555707  0.2326586706276890
  0.5087767583941936  0.0925485298747186  0.2355645323744863
  0.8675350976529737  0.6336992991375373  0.2384731489562610
  0.2264825279070963  0.1746679618236562  0.2413805776125676
  0.5852546971535610  0.7159291073769974  0.2443098133960749
  0.9439582618189778  0.2569718653706978  0.2472143446459418
  0.3029917054888578  0.7980776354213542  0.2501361650682427
  0.6616956974177940  0.3393333662433277  0.2530714381732588
  0.0205176167469938  0.8803303036301949  0.2559706491255608
  0.3795702031270682  0.4215191706977393  0.2589088288418968
  0.7380817804326868  0.9625502147068973  0.2618382443044255
  0.0971155586562417  0.5036373748593010  0.2646911174041421
  0.4559858064573633  0.0449156041731122  0.2676589396068912
  0.8145305322303354  0.5859963985270769  0.2705867688017958
  0.1737031857899641  0.1272134436389335  0.2734734071383431
  0.5322124300130100  0.6681736390870081  0.2764800175517605
  0.8909357453172650  0.2091780619567278  0.2793301014540763
  0.2503307666524034  0.7504521858230125  0.2822610371055744
  0.6087532053287513  0.2916092684272250  0.2852081119782372
  0.9676166596359570  0.8325725148368071  0.2880724937200231
  0.3270569020519821  0.3740238235808746  0.2909944428553490
  0.6847438355371964  0.9147591476504188  0.2939945872361555
  0.0438260468608204  0.4561535771313733  0.2967988573468804
  0.4032061478942296  0.9967492051167793  0.2997940950691584
  0.7606340986636179  0.5379365435538568  0.3027055128676914
  0.1203693288073338  0.0798623075434543  0.3054939415042756
  0.4795076915167887  0.6196307452276434  0.3088128258709523
  0.8376009571910165  0.1606311884445979  0.3114298811609434
  0.1973552052160273  0.7039909669084524  0.3143173305906253
  0.5570065335149884  0.2431952077765263  0.3173989448864204
  0.9126563284085536  0.7855960335692601  0.3200865678230992
  0.2749947077038800  0.3293107248546921  0.3227743797526720
  0.6311572784750533  0.8623541952120859  0.3262777610805314
  0.9899240089780338  0.4091110506440763  0.3284527237517287
  0.3509548174716446  0.9492359166095510  0.3315058314754192
  0.7094814767345554  0.4884446295288892  0.3347284446048252
  0.0669842485518184  0.0358208838421699  0.3372718868453748
  0.4264200514510967  0.5725225935646323  0.3421762232398696
  0.7874482615252332  0.1077042965183904  0.3438854182065827
  0.1387911846486235  0.6668686330770973  0.3460605937110901
  0.5106740995316261  0.1887664274131669  0.3489320334474775
  0.8583862516550655  0.7363012310907678  0.3520402684144853
  0.2230754778295142  0.2997425181850563  0.3538923142125092
  0.5761379863522759  0.8033472757062345  0.3595781468368756
  0.9501384550878743  0.3592512417971022  0.3605537688618548
  0.2951465400709868  0.9529533746335828  0.3634788859417179
  0.6882793991744565  0.4205584012877727  0.3674369233191584
  0.0117479348849334  0.9908525497130051  0.3701389154289251
  0.2347559453519782  0.6338320494471404  0.3758377186101463
  0.7251009974639107  0.0243146308379793  0.3776420739999390
  0.4488666129099408  0.3314369807983445  0.3780407437550400
  0.9504557068048889  0.6496289256812492  0.3832147566658576
  0.1819842735844751  0.2897899065410433  0.3864605285826800
  0.4408038199823390  0.9632430231776317  0.3897017348424565
  0.6692408110006679  0.6482960028014522  0.3919459099484592
  0.9093088457855619  0.2879760367845446  0.3944288335520160
  0.1591771693873316  0.9369725681995830  0.3981538335130552
  0.3979509244490044  0.6015635993138894  0.4015756679235972
  0.6380944846132789  0.2694021637606447  0.4032113655941541
  0.8818651863898336  0.9241118009824212  0.4060497849136609
  0.1186110463559104  0.5760678185320353  0.4098533598399224
  0.3618025346140580  0.2366583904211034  0.4128957155491778
  0.6063939935507121  0.9038578003319097  0.4153699428104832
  0.8438327757690671  0.5586304748378473  0.4182149741074083
  0.0844909055325169  0.2135854866030849  0.4211945151141635
  0.3269366091036654  0.8734917731216048  0.4243580611395746
  0.5687543960822797  0.5340985500315110  0.4270479100434846
  0.8090680304638621  0.1934528853222514  0.4296188178466465
  0.0493880525946067  0.8498723234807758  0.4327915721814358
  0.2909724587488088  0.5088351393842442  0.4358857732675908
  0.5328038093760591  0.1696817129076593  0.4386507121360883
  0.7744342235202960  0.8278956686239417  0.4414592414582020
  0.0143829077651188  0.4855021027279667  0.4445145391802854
  0.2552721868166327  0.1443042578426883  0.4475085572788338
  0.4979284733162010  0.8040565264765842  0.4503813911167940
  0.7387459561561587  0.4622635816230150  0.4532339849486771
  0.9793346817461213  0.1205456760421174  0.4561614057932872
  0.2205852861257391  0.7795570111825929  0.4591551920953947
  0.4622206812936933  0.4385226098619782  0.4620448353863651
  0.7036004402396989  0.0976038688605538  0.4649099809854820
  0.9443012773558547  0.7558372744739628  0.4678365054754083
  0.1854251922505091  0.4144592354700574  0.4708298622633039
  0.4268623703957634  0.0735695919276089  0.4737034758112602
  0.6681959099086837  0.7322560040665621  0.4765910663713944
  0.9090777346940332  0.3908327802086807  0.4795469043689431
  0.1500615486654886  0.0496104417902827  0.4824723881582094
  0.3914648578199258  0.7086790595215753  0.4853975645788123
  0.6325688015756228  0.3673508257454584  0.4882823710544553
  0.8736128055474645  0.0259794796868519  0.4912219749191098
  0.1148373529058064  0.6847826263652218  0.4941575532418709
  0.3560987473846980  0.3435445882386985  0.4970459301721561
  0.5972970688393581  0.0023399910351553  0.4999651549238270
  0.8384719366327672  0.6609045981431860  0.5028758109989673
  0.0796717797116465  0.3195648557462533  0.5058167182892952
  0.3209693361667971  0.9784950779471385  0.5087247080932530
  0.5621388437243260  0.6372961556804576  0.5116343475770703
  0.8032824466465500  0.2959116379050988  0.5145544661213918
  0.0444416572222799  0.9546555857699969  0.5174719441768577
  0.2856720516409362  0.6134763522784070  0.5203959779441020
  0.5267706157077700  0.2722493488100708  0.5232914421900267
  0.7679853847906067  0.9311276767161843  0.5262317473013531
  0.0091173956069669  0.5897595393230337  0.5291457342316426
  0.2502403160004885  0.2485728307947578  0.5320509461000946
  0.4913564495177426  0.9073991422224056  0.5349661494414132
  0.7325706540953616  0.5661379128614523  0.5378845787839409
  0.9737591017218886  0.2249687744265839  0.5408024722982491
  0.2149215317239102  0.8836974522565774  0.5437162721064352
  0.4560954120894551  0.5424468753067789  0.5466279928535374
  0.6972677237242820  0.2011402789518259  0.5495474224336588
  0.9385241803616723  0.8599347131802507  0.5524762964864613
  0.1797088574445430  0.5187223971265545  0.5553925371178672
  0.4209324153081156  0.1774525966469250  0.5582855111904856
  0.6620843390246841  0.8362491881320923  0.5612204630614497
  0.9032846277305865  0.4949860289946093  0.5641300283763744
  0.1444025400327135  0.1537700020432319  0.5670578122662997
  0.3855638161538386  0.8126909222834817  0.5699685146717967
  0.6266926209697821  0.4715073780265647  0.5728995147798005
  0.8678785135925350  0.1302014700525671  0.5757978548322021
  0.1090205997271998  0.7888848712001555  0.5787154335088985
  0.3502302397641336  0.4476368074424585  0.5816308917594987
  0.5913721456861916  0.1063505848578429  0.5845587060361499
  0.8325639663033897  0.7652221386847700  0.5874733712474011
  0.0736588058997985  0.4239404006848705  0.5903748651222483
  0.3149025016037330  0.0828383510678245  0.5932557704511746
  0.5560705779932635  0.7415192235393826  0.5961899051887378
  0.7972497704286978  0.4002409716704397  0.5991043715844184
  0.0383788703043311  0.0590444542242023  0.6020199098485748
  0.2794988015161666  0.7179151828915615  0.6049281997587431
  0.5205796727263517  0.3768448359927779  0.6078769797848828
  0.7617602939842744  0.0355853857236940  0.6107706896846358
  0.0029266496905267  0.6941915997409198  0.6136985556788200
  0.2441685679135440  0.3530641810755548  0.6166187366534234
  0.4851863915204596  0.0116934062015730  0.6195574413513703
  0.7264688950552510  0.6705246510646804  0.6224383157014974
  0.9675590468629673  0.3294138089166099  0.6253417698705219
  0.2087611880003609  0.9882886998538463  0.6282411399287120
  0.4500218054414424  0.6470460138339336  0.6312007376194700
  0.6913443056966679  0.3057870057358473  0.6341062389613306
  0.9324887328781003  0.9643454320721854  0.6369847557257522
  0.1738452190722098  0.6229228534771736  0.6398866535841680
  0.4149191438402649  0.2822801197529676  0.6428216899409748
  0.6559845328306425  0.9413982264173044  0.6457200655706705
  0.8969091922203312  0.5998191140291630  0.6486702280807020
  0.1382151872073933  0.2581584696428213  0.6515733908805892
  0.3791963050248363  0.9173400628281760  0.6545466345687313
  0.6203125270011188  0.5764401303964944  0.6573164692728670
  0.8618583035376001  0.2354510644938489  0.6602313465581522
  0.1028432622947438  0.8944786619441848  0.6631787540378623
  0.3440872760432194  0.5527025270661897  0.6662066635653554
  0.5853159854761495  0.2127153282301587  0.6690603381190608
  0.8263034075676009  0.8704443803881237  0.6718483800715793
  0.0690347231384391  0.5292867213954086  0.6747603479387300
  0.3101802065848913  0.1894553982885000  0.6776425976053146
  0.5504060385529371  0.8491036369248299  0.6805264253365092
  0.7928002871752413  0.5064008568076260  0.6836814101414158
  0.0342037802326224  0.1648942884664980  0.6866186695143540
  0.2747420940167242  0.8234548670086930  0.6894944886604619
  0.5165617607930812  0.4841279774889498  0.6921369143620991
  0.7572019730573534  0.1416606967003917  0.6949474585259471
  0.9973436079270555  0.7996051021781179  0.6978579486271755
  0.2364292446846324  0.4575063671518314  0.7014461650074042
  0.4775488869679048  0.1171877762380444  0.7044418433957714
  0.7197238800582356  0.7746581791602374  0.7071834010237779
  0.9614138570221928  0.4351713128933231  0.7100892733945078
  0.1978259930120492  0.0865046755501978  0.7120576826702654
  0.4398918120254122  0.7450667617397948  0.7153425069867978
  0.6807322304777332  0.4040064984202444  0.7185158139228104
  0.9173421244857454  0.0680786507159235  0.7206561595861215
  0.1578043071503374  0.7295380999956246  0.7226396952797468
  0.4169731653204047  0.4005450647395834  0.7250571741692787
  0.6562594187844946  0.0576256466392403  0.7278935156467415
  0.8905813796850152  0.7111865658893589  0.7303044771675744
 
  0.00000000E+00  0.00000000E+00  0.00000000E+00
  0.00000000E+00  0.00000000E+00  0.00000000E+00
  0.00000000E+00  0.00000000E+00  0.00000000E+00
  0.00000000E+00  0.00000000E+00  0.00000000E+00
  0.00000000E+00  0.00000000E+00  0.00000000E+00
  0.00000000E+00  0.00000000E+00  0.00000000E+00
  0.00000000E+00  0.00000000E+00  0.00000000E+00
  0.00000000E+00  0.00000000E+00  0.00000000E+00
  0.00000000E+00  0.00000000E+00  0.00000000E+00
  0.00000000E+00  0.00000000E+00  0.00000000E+00
  0.00000000E+00  0.00000000E+00  0.00000000E+00
  0.00000000E+00  0.00000000E+00  0.00000000E+00
  0.00000000E+00  0.00000000E+00  0.00000000E+00
  0.00000000E+00  0.00000000E+00  0.00000000E+00
  0.00000000E+00  0.00000000E+00  0.00000000E+00
  0.00000000E+00  0.00000000E+00  0.00000000E+00
  0.00000000E+00  0.00000000E+00  0.00000000E+00
  0.00000000E+00  0.00000000E+00  0.00000000E+00
  0.00000000E+00  0.00000000E+00  0.00000000E+00
  0.00000000E+00  0.00000000E+00  0.00000000E+00
  0.00000000E+00  0.00000000E+00  0.00000000E+00
  0.00000000E+00  0.00000000E+00  0.00000000E+00
  0.00000000E+00  0.00000000E+00  0.00000000E+00
  0.00000000E+00  0.00000000E+00  0.00000000E+00
  0.00000000E+00  0.00000000E+00  0.00000000E+00
  0.00000000E+00  0.00000000E+00  0.00000000E+00
  0.00000000E+00  0.00000000E+00  0.00000000E+00
  0.00000000E+00  0.00000000E+00  0.00000000E+00
  0.00000000E+00  0.00000000E+00  0.00000000E+00
  0.00000000E+00  0.00000000E+00  0.00000000E+00
  0.00000000E+00  0.00000000E+00  0.00000000E+00
  0.00000000E+00  0.00000000E+00  0.00000000E+00
  0.00000000E+00  0.00000000E+00  0.00000000E+00
  0.00000000E+00  0.00000000E+00  0.00000000E+00
  0.00000000E+00  0.00000000E+00  0.00000000E+00
  0.00000000E+00  0.00000000E+00  0.00000000E+00
  0.00000000E+00  0.00000000E+00  0.00000000E+00
  0.00000000E+00  0.00000000E+00  0.00000000E+00
  0.00000000E+00  0.00000000E+00  0.00000000E+00
  0.00000000E+00  0.00000000E+00  0.00000000E+00
  0.00000000E+00  0.00000000E+00  0.00000000E+00
  0.00000000E+00  0.00000000E+00  0.00000000E+00
  0.00000000E+00  0.00000000E+00  0.00000000E+00
  0.00000000E+00  0.00000000E+00  0.00000000E+00
  0.00000000E+00  0.00000000E+00  0.00000000E+00
  0.00000000E+00  0.00000000E+00  0.00000000E+00
  0.00000000E+00  0.00000000E+00  0.00000000E+00
  0.00000000E+00  0.00000000E+00  0.00000000E+00
  0.00000000E+00  0.00000000E+00  0.00000000E+00
  0.00000000E+00  0.00000000E+00  0.00000000E+00
  0.00000000E+00  0.00000000E+00  0.00000000E+00
  0.00000000E+00  0.00000000E+00  0.00000000E+00
  0.00000000E+00  0.00000000E+00  0.00000000E+00
  0.00000000E+00  0.00000000E+00  0.00000000E+00
  0.00000000E+00  0.00000000E+00  0.00000000E+00
  0.00000000E+00  0.00000000E+00  0.00000000E+00
  0.00000000E+00  0.00000000E+00  0.00000000E+00
  0.00000000E+00  0.00000000E+00  0.00000000E+00
  0.00000000E+00  0.00000000E+00  0.00000000E+00
  0.00000000E+00  0.00000000E+00  0.00000000E+00
  0.00000000E+00  0.00000000E+00  0.00000000E+00
  0.00000000E+00  0.00000000E+00  0.00000000E+00
  0.00000000E+00  0.00000000E+00  0.00000000E+00
  0.00000000E+00  0.00000000E+00  0.00000000E+00
  0.00000000E+00  0.00000000E+00  0.00000000E+00
  0.00000000E+00  0.00000000E+00  0.00000000E+00
  0.00000000E+00  0.00000000E+00  0.00000000E+00
  0.00000000E+00  0.00000000E+00  0.00000000E+00
  0.00000000E+00  0.00000000E+00  0.00000000E+00
  0.00000000E+00  0.00000000E+00  0.00000000E+00
  0.00000000E+00  0.00000000E+00  0.00000000E+00
  0.00000000E+00  0.00000000E+00  0.00000000E+00
  0.00000000E+00  0.00000000E+00  0.00000000E+00
  0.00000000E+00  0.00000000E+00  0.00000000E+00
  0.00000000E+00  0.00000000E+00  0.00000000E+00
  0.00000000E+00  0.00000000E+00  0.00000000E+00
  0.00000000E+00  0.00000000E+00  0.00000000E+00
  0.00000000E+00  0.00000000E+00  0.00000000E+00
  0.00000000E+00  0.00000000E+00  0.00000000E+00
  0.00000000E+00  0.00000000E+00  0.00000000E+00
  0.00000000E+00  0.00000000E+00  0.00000000E+00
  0.00000000E+00  0.00000000E+00  0.00000000E+00
  0.00000000E+00  0.00000000E+00  0.00000000E+00
  0.00000000E+00  0.00000000E+00  0.00000000E+00
  0.00000000E+00  0.00000000E+00  0.00000000E+00
  0.00000000E+00  0.00000000E+00  0.00000000E+00
  0.00000000E+00  0.00000000E+00  0.00000000E+00
  0.00000000E+00  0.00000000E+00  0.00000000E+00
  0.00000000E+00  0.00000000E+00  0.00000000E+00
  0.00000000E+00  0.00000000E+00  0.00000000E+00
  0.00000000E+00  0.00000000E+00  0.00000000E+00
  0.00000000E+00  0.00000000E+00  0.00000000E+00
  0.00000000E+00  0.00000000E+00  0.00000000E+00
  0.00000000E+00  0.00000000E+00  0.00000000E+00
  0.00000000E+00  0.00000000E+00  0.00000000E+00
  0.00000000E+00  0.00000000E+00  0.00000000E+00
  0.00000000E+00  0.00000000E+00  0.00000000E+00
  0.00000000E+00  0.00000000E+00  0.00000000E+00
  0.00000000E+00  0.00000000E+00  0.00000000E+00
  0.00000000E+00  0.00000000E+00  0.00000000E+00
  0.00000000E+00  0.00000000E+00  0.00000000E+00
  0.00000000E+00  0.00000000E+00  0.00000000E+00
  0.00000000E+00  0.00000000E+00  0.00000000E+00
  0.00000000E+00  0.00000000E+00  0.00000000E+00
  0.00000000E+00  0.00000000E+00  0.00000000E+00
  0.00000000E+00  0.00000000E+00  0.00000000E+00
  0.00000000E+00  0.00000000E+00  0.00000000E+00
  0.00000000E+00  0.00000000E+00  0.00000000E+00
  0.00000000E+00  0.00000000E+00  0.00000000E+00
  0.00000000E+00  0.00000000E+00  0.00000000E+00
  0.00000000E+00  0.00000000E+00  0.00000000E+00
  0.00000000E+00  0.00000000E+00  0.00000000E+00
  0.00000000E+00  0.00000000E+00  0.00000000E+00
  0.00000000E+00  0.00000000E+00  0.00000000E+00
  0.00000000E+00  0.00000000E+00  0.00000000E+00
  0.00000000E+00  0.00000000E+00  0.00000000E+00
  0.00000000E+00  0.00000000E+00  0.00000000E+00
  0.00000000E+00  0.00000000E+00  0.00000000E+00
  0.00000000E+00  0.00000000E+00  0.00000000E+00
  0.00000000E+00  0.00000000E+00  0.00000000E+00
  0.00000000E+00  0.00000000E+00  0.00000000E+00
  0.00000000E+00  0.00000000E+00  0.00000000E+00
  0.00000000E+00  0.00000000E+00  0.00000000E+00
  0.00000000E+00  0.00000000E+00  0.00000000E+00
  0.00000000E+00  0.00000000E+00  0.00000000E+00
  0.00000000E+00  0.00000000E+00  0.00000000E+00
  0.00000000E+00  0.00000000E+00  0.00000000E+00
  0.00000000E+00  0.00000000E+00  0.00000000E+00
  0.00000000E+00  0.00000000E+00  0.00000000E+00
  0.00000000E+00  0.00000000E+00  0.00000000E+00
  0.00000000E+00  0.00000000E+00  0.00000000E+00
  0.00000000E+00  0.00000000E+00  0.00000000E+00
  0.00000000E+00  0.00000000E+00  0.00000000E+00
  0.00000000E+00  0.00000000E+00  0.00000000E+00
  0.00000000E+00  0.00000000E+00  0.00000000E+00
  0.00000000E+00  0.00000000E+00  0.00000000E+00
  0.00000000E+00  0.00000000E+00  0.00000000E+00
  0.00000000E+00  0.00000000E+00  0.00000000E+00
  0.00000000E+00  0.00000000E+00  0.00000000E+00
  0.00000000E+00  0.00000000E+00  0.00000000E+00
  0.00000000E+00  0.00000000E+00  0.00000000E+00
  0.00000000E+00  0.00000000E+00  0.00000000E+00
  0.00000000E+00  0.00000000E+00  0.00000000E+00
  0.00000000E+00  0.00000000E+00  0.00000000E+00
  0.00000000E+00  0.00000000E+00  0.00000000E+00
  0.00000000E+00  0.00000000E+00  0.00000000E+00
  0.00000000E+00  0.00000000E+00  0.00000000E+00
  0.00000000E+00  0.00000000E+00  0.00000000E+00
  0.00000000E+00  0.00000000E+00  0.00000000E+00
  0.00000000E+00  0.00000000E+00  0.00000000E+00
  0.00000000E+00  0.00000000E+00  0.00000000E+00
  0.00000000E+00  0.00000000E+00  0.00000000E+00
  0.00000000E+00  0.00000000E+00  0.00000000E+00
  0.00000000E+00  0.00000000E+00  0.00000000E+00
  0.00000000E+00  0.00000000E+00  0.00000000E+00
  0.00000000E+00  0.00000000E+00  0.00000000E+00
  0.00000000E+00  0.00000000E+00  0.00000000E+00
  0.00000000E+00  0.00000000E+00  0.00000000E+00
  0.00000000E+00  0.00000000E+00  0.00000000E+00
  0.00000000E+00  0.00000000E+00  0.00000000E+00
  0.00000000E+00  0.00000000E+00  0.00000000E+00
  0.00000000E+00  0.00000000E+00  0.00000000E+00
  0.00000000E+00  0.00000000E+00  0.00000000E+00
  0.00000000E+00  0.00000000E+00  0.00000000E+00
  0.00000000E+00  0.00000000E+00  0.00000000E+00
  0.00000000E+00  0.00000000E+00  0.00000000E+00
  0.00000000E+00  0.00000000E+00  0.00000000E+00
  0.00000000E+00  0.00000000E+00  0.00000000E+00
  0.00000000E+00  0.00000000E+00  0.00000000E+00
  0.00000000E+00  0.00000000E+00  0.00000000E+00
  0.00000000E+00  0.00000000E+00  0.00000000E+00
  0.00000000E+00  0.00000000E+00  0.00000000E+00
  0.00000000E+00  0.00000000E+00  0.00000000E+00
  0.00000000E+00  0.00000000E+00  0.00000000E+00
  0.00000000E+00  0.00000000E+00  0.00000000E+00
  0.00000000E+00  0.00000000E+00  0.00000000E+00
  0.00000000E+00  0.00000000E+00  0.00000000E+00
  0.00000000E+00  0.00000000E+00  0.00000000E+00
  0.00000000E+00  0.00000000E+00  0.00000000E+00
  0.00000000E+00  0.00000000E+00  0.00000000E+00
  0.00000000E+00  0.00000000E+00  0.00000000E+00
  0.00000000E+00  0.00000000E+00  0.00000000E+00
  0.00000000E+00  0.00000000E+00  0.00000000E+00
  0.00000000E+00  0.00000000E+00  0.00000000E+00
  0.00000000E+00  0.00000000E+00  0.00000000E+00
  0.00000000E+00  0.00000000E+00  0.00000000E+00
  0.00000000E+00  0.00000000E+00  0.00000000E+00
  0.00000000E+00  0.00000000E+00  0.00000000E+00
  0.00000000E+00  0.00000000E+00  0.00000000E+00
  0.00000000E+00  0.00000000E+00  0.00000000E+00
  0.00000000E+00  0.00000000E+00  0.00000000E+00
  0.00000000E+00  0.00000000E+00  0.00000000E+00
  0.00000000E+00  0.00000000E+00  0.00000000E+00
  0.00000000E+00  0.00000000E+00  0.00000000E+00
  0.00000000E+00  0.00000000E+00  0.00000000E+00
  0.00000000E+00  0.00000000E+00  0.00000000E+00
  0.00000000E+00  0.00000000E+00  0.00000000E+00
  0.00000000E+00  0.00000000E+00  0.00000000E+00
  0.00000000E+00  0.00000000E+00  0.00000000E+00
  0.00000000E+00  0.00000000E+00  0.00000000E+00
  0.00000000E+00  0.00000000E+00  0.00000000E+00
  0.00000000E+00  0.00000000E+00  0.00000000E+00
  0.00000000E+00  0.00000000E+00  0.00000000E+00
  0.00000000E+00  0.00000000E+00  0.00000000E+00
  0.00000000E+00  0.00000000E+00  0.00000000E+00
  0.00000000E+00  0.00000000E+00  0.00000000E+00
  0.00000000E+00  0.00000000E+00  0.00000000E+00
  0.00000000E+00  0.00000000E+00  0.00000000E+00
  0.00000000E+00  0.00000000E+00  0.00000000E+00
  0.00000000E+00  0.00000000E+00  0.00000000E+00
  0.00000000E+00  0.00000000E+00  0.00000000E+00
  0.00000000E+00  0.00000000E+00  0.00000000E+00
  0.00000000E+00  0.00000000E+00  0.00000000E+00
  0.00000000E+00  0.00000000E+00  0.00000000E+00
  0.00000000E+00  0.00000000E+00  0.00000000E+00
  0.00000000E+00  0.00000000E+00  0.00000000E+00
  0.00000000E+00  0.00000000E+00  0.00000000E+00
  0.00000000E+00  0.00000000E+00  0.00000000E+00
  0.00000000E+00  0.00000000E+00  0.00000000E+00
  0.00000000E+00  0.00000000E+00  0.00000000E+00
  0.00000000E+00  0.00000000E+00  0.00000000E+00
  0.00000000E+00  0.00000000E+00  0.00000000E+00
  0.00000000E+00  0.00000000E+00  0.00000000E+00
  0.00000000E+00  0.00000000E+00  0.00000000E+00
  0.00000000E+00  0.00000000E+00  0.00000000E+00
  0.00000000E+00  0.00000000E+00  0.00000000E+00
  0.00000000E+00  0.00000000E+00  0.00000000E+00
  0.00000000E+00  0.00000000E+00  0.00000000E+00
  0.00000000E+00  0.00000000E+00  0.00000000E+00
  0.00000000E+00  0.00000000E+00  0.00000000E+00
  0.00000000E+00  0.00000000E+00  0.00000000E+00
  0.00000000E+00  0.00000000E+00  0.00000000E+00
  0.00000000E+00  0.00000000E+00  0.00000000E+00
  0.00000000E+00  0.00000000E+00  0.00000000E+00
  0.00000000E+00  0.00000000E+00  0.00000000E+00
  0.00000000E+00  0.00000000E+00  0.00000000E+00
  0.00000000E+00  0.00000000E+00  0.00000000E+00
  0.00000000E+00  0.00000000E+00  0.00000000E+00
  0.00000000E+00  0.00000000E+00  0.00000000E+00
  0.00000000E+00  0.00000000E+00  0.00000000E+00
  0.00000000E+00  0.00000000E+00  0.00000000E+00
  0.00000000E+00  0.00000000E+00  0.00000000E+00
  0.00000000E+00  0.00000000E+00  0.00000000E+00
  0.00000000E+00  0.00000000E+00  0.00000000E+00
  0.00000000E+00  0.00000000E+00  0.00000000E+00
  0.00000000E+00  0.00000000E+00  0.00000000E+00
  0.00000000E+00  0.00000000E+00  0.00000000E+00
  0.00000000E+00  0.00000000E+00  0.00000000E+00
  0.00000000E+00  0.00000000E+00  0.00000000E+00
  0.00000000E+00  0.00000000E+00  0.00000000E+00
