 W                                      
   1.00000000000000     
     4.5120332854864431    0.0000000000000000    0.0000000000000000
     2.2560217320574161    3.9075347240829346    0.0000000000000000
     0.0000000000000000    0.0000000000000000   74.6022210526315774
   W 
    72
Direct
 -0.0000000000000000  0.0000000000000000  0.0124036844673864
  0.6666654805586489  0.6666675349573836  0.0218056174046394
  0.3333345194413511  0.3333324650426164  0.0309034368151024
 -0.0000000000000000  0.0000000000000000  0.0454094125043633
  0.6666654805586489  0.6666675349573836  0.0569469448341140
  0.3333345194413511  0.3333324650426164  0.0695364779041626
 -0.0000000000000000 -0.0000000000000000  0.0819079001981402
  0.6666654805586489  0.6666675349573836  0.0942185883130047
  0.3333345194413511  0.3333324650426164  0.1061547008541110
 -0.0000000000000000 -0.0000000000000000  0.1184290788462361
  0.6666654805586489  0.6666675349573836  0.1305470328631892
  0.3333345194413511  0.3333324650426164  0.1428818473569349
 -0.0000000000000000 -0.0000000000000000  0.1551599467550367
  0.6666654805586489  0.6666675349573836  0.1673886867725665
  0.3333345194413511  0.3333324650426164  0.1795734119097977
 -0.0000000000000000 -0.0000000000000000  0.1917991843298545
  0.6666654805586489  0.6666675349573836  0.2040155104334263
  0.3333345194413511  0.3333324650426164  0.2162485081394506
 -0.0000000000000000 -0.0000000000000000  0.2285218947958430
  0.6666654805586489  0.6666675349573836  0.2407776563567808
  0.3333345194413511  0.3333324650426164  0.2530180050059035
 -0.0000000000000000 -0.0000000000000000  0.2652214167829650
  0.6666654805586489  0.6666675349573836  0.2774661417852479
  0.3333345194413511  0.3333324650426164  0.2896812683633085
 -0.0000000000000000 -0.0000000000000000  0.3019594164853119
  0.6666654805586489  0.6666675349573836  0.3142391213692758
  0.3333345194413511  0.3333324650426164  0.3265084470402022
 -0.0000000000000000 -0.0000000000000000  0.3387064754577411
  0.6666654805586489  0.6666675349573836  0.3509804714330584
  0.3333345194413511  0.3333324650426164  0.3630856276033836
 -0.0000000000000000 -0.0000000000000000  0.3755958267350942
  0.6666654805586489  0.6666675349573836  0.3878276204734923
  0.3333345194413511  0.3333324650426164  0.3996517715639167
 -0.0000000000000000 -0.0000000000000000  0.4125303732150307
  0.6666654805586489  0.6666675349573836  0.4246646016411562
  0.3333345194413511  0.3333324650426164  0.4345591238648787
  0.0000000000000000 -0.0000000000000000  0.4512624081419008
  0.3333345194413511  0.3333324650426164  0.4678720321489697
  0.6666654805586489  0.6666675349573836  0.4778064076914565
 -0.0000000000000000 -0.0000000000000000  0.4899609032663778
  0.3333345194413511  0.3333324650426164  0.5027991609365244
  0.6666654805586489  0.6666675349573836  0.5146672202377729
 -0.0000000000000000 -0.0000000000000000  0.5268708149434710
  0.3333345194413511  0.3333324650426164  0.5393952818475186
  0.6666654805586489  0.6666675349573836  0.5514711138922549
 -0.0000000000000000 -0.0000000000000000  0.5637914341304223
  0.3333345194413511  0.3333324650426164  0.5759675854627097
  0.6666654805586489  0.6666675349573836  0.5882620580790606
 -0.0000000000000000 -0.0000000000000000  0.6004958857001417
  0.3333345194413511  0.3333324650426164  0.6128115111516449
  0.6666654805586489  0.6666675349573836  0.6249918189116376
 -0.0000000000000000 -0.0000000000000000  0.6372767110244997
  0.3333345194413511  0.3333324650426164  0.6494412131534876
  0.6666654805586489  0.6666675349573836  0.6617674361980107
 -0.0000000000000000 -0.0000000000000000  0.6739458934262060
  0.3333345194413511  0.3333324650426164  0.6862528200101473
  0.6666654805586489  0.6666675349573836  0.6984231183354951
 -0.0000000000000000 -0.0000000000000000  0.7107131624138979
  0.3333345194413511  0.3333324650426164  0.7228598923541749
  0.6666654805586489  0.6666675349573836  0.7351318347683165
 -0.0000000000000000 -0.0000000000000000  0.7473649962052167
  0.3333345194413511  0.3333324650426164  0.7597300383932929
  0.6666654805586489  0.6666675349573836  0.7718084995904332
 -0.0000000000000000 -0.0000000000000000  0.7841315407685424
  0.3333345194413511  0.3333324650426164  0.7960444152123937
  0.6666654805586489  0.6666675349573836  0.8083891176631326
 -0.0000000000000000 -0.0000000000000000  0.8207473263171557
  0.3333345194413511  0.3333324650426164  0.8333413610730083
  0.6666654805586489  0.6666675349573836  0.8448827523781139
 -0.0000000000000000 -0.0000000000000000  0.8593643313566895
  0.3333345194413511  0.3333324650426164  0.8684797027578467
  0.6666654805586489  0.6666675349573836  0.8778981428657581
 
  0.00000000E+00  0.00000000E+00  0.00000000E+00
  0.00000000E+00  0.00000000E+00  0.00000000E+00
  0.00000000E+00  0.00000000E+00  0.00000000E+00
  0.00000000E+00  0.00000000E+00  0.00000000E+00
  0.00000000E+00  0.00000000E+00  0.00000000E+00
  0.00000000E+00  0.00000000E+00  0.00000000E+00
  0.00000000E+00  0.00000000E+00  0.00000000E+00
  0.00000000E+00  0.00000000E+00  0.00000000E+00
  0.00000000E+00  0.00000000E+00  0.00000000E+00
  0.00000000E+00  0.00000000E+00  0.00000000E+00
  0.00000000E+00  0.00000000E+00  0.00000000E+00
  0.00000000E+00  0.00000000E+00  0.00000000E+00
  0.00000000E+00  0.00000000E+00  0.00000000E+00
  0.00000000E+00  0.00000000E+00  0.00000000E+00
  0.00000000E+00  0.00000000E+00  0.00000000E+00
  0.00000000E+00  0.00000000E+00  0.00000000E+00
  0.00000000E+00  0.00000000E+00  0.00000000E+00
  0.00000000E+00  0.00000000E+00  0.00000000E+00
  0.00000000E+00  0.00000000E+00  0.00000000E+00
  0.00000000E+00  0.00000000E+00  0.00000000E+00
  0.00000000E+00  0.00000000E+00  0.00000000E+00
  0.00000000E+00  0.00000000E+00  0.00000000E+00
  0.00000000E+00  0.00000000E+00  0.00000000E+00
  0.00000000E+00  0.00000000E+00  0.00000000E+00
  0.00000000E+00  0.00000000E+00  0.00000000E+00
  0.00000000E+00  0.00000000E+00  0.00000000E+00
  0.00000000E+00  0.00000000E+00  0.00000000E+00
  0.00000000E+00  0.00000000E+00  0.00000000E+00
  0.00000000E+00  0.00000000E+00  0.00000000E+00
  0.00000000E+00  0.00000000E+00  0.00000000E+00
  0.00000000E+00  0.00000000E+00  0.00000000E+00
  0.00000000E+00  0.00000000E+00  0.00000000E+00
  0.00000000E+00  0.00000000E+00  0.00000000E+00
  0.00000000E+00  0.00000000E+00  0.00000000E+00
  0.00000000E+00  0.00000000E+00  0.00000000E+00
  0.00000000E+00  0.00000000E+00  0.00000000E+00
  0.00000000E+00  0.00000000E+00  0.00000000E+00
  0.00000000E+00  0.00000000E+00  0.00000000E+00
  0.00000000E+00  0.00000000E+00  0.00000000E+00
  0.00000000E+00  0.00000000E+00  0.00000000E+00
  0.00000000E+00  0.00000000E+00  0.00000000E+00
  0.00000000E+00  0.00000000E+00  0.00000000E+00
  0.00000000E+00  0.00000000E+00  0.00000000E+00
  0.00000000E+00  0.00000000E+00  0.00000000E+00
  0.00000000E+00  0.00000000E+00  0.00000000E+00
  0.00000000E+00  0.00000000E+00  0.00000000E+00
  0.00000000E+00  0.00000000E+00  0.00000000E+00
  0.00000000E+00  0.00000000E+00  0.00000000E+00
  0.00000000E+00  0.00000000E+00  0.00000000E+00
  0.00000000E+00  0.00000000E+00  0.00000000E+00
  0.00000000E+00  0.00000000E+00  0.00000000E+00
  0.00000000E+00  0.00000000E+00  0.00000000E+00
  0.00000000E+00  0.00000000E+00  0.00000000E+00
  0.00000000E+00  0.00000000E+00  0.00000000E+00
  0.00000000E+00  0.00000000E+00  0.00000000E+00
  0.00000000E+00  0.00000000E+00  0.00000000E+00
  0.00000000E+00  0.00000000E+00  0.00000000E+00
  0.00000000E+00  0.00000000E+00  0.00000000E+00
  0.00000000E+00  0.00000000E+00  0.00000000E+00
  0.00000000E+00  0.00000000E+00  0.00000000E+00
  0.00000000E+00  0.00000000E+00  0.00000000E+00
  0.00000000E+00  0.00000000E+00  0.00000000E+00
  0.00000000E+00  0.00000000E+00  0.00000000E+00
  0.00000000E+00  0.00000000E+00  0.00000000E+00
  0.00000000E+00  0.00000000E+00  0.00000000E+00
  0.00000000E+00  0.00000000E+00  0.00000000E+00
  0.00000000E+00  0.00000000E+00  0.00000000E+00
  0.00000000E+00  0.00000000E+00  0.00000000E+00
  0.00000000E+00  0.00000000E+00  0.00000000E+00
  0.00000000E+00  0.00000000E+00  0.00000000E+00
  0.00000000E+00  0.00000000E+00  0.00000000E+00
  0.00000000E+00  0.00000000E+00  0.00000000E+00
